 Entering Gaussian System, Link 0=g16
 Initial command:
 /public/home/jackie_lijiaqi/g16/l1.exe "/public/home/jackie_lijiaqi/g16/scratch/Gau-117104.inp" -scrdir="/public/home/jackie_lijiaqi/g16/scratch/"
 Entering Link 1 = /public/home/jackie_lijiaqi/g16/l1.exe PID=    117105.
  
 Copyright (c) 1988-2019, Gaussian, Inc.  All Rights Reserved.
  
 This is part of the Gaussian(R) 16 program.  It is based on
 the Gaussian(R) 09 system (copyright 2009, Gaussian, Inc.),
 the Gaussian(R) 03 system (copyright 2003, Gaussian, Inc.),
 the Gaussian(R) 98 system (copyright 1998, Gaussian, Inc.),
 the Gaussian(R) 94 system (copyright 1995, Gaussian, Inc.),
 the Gaussian 92(TM) system (copyright 1992, Gaussian, Inc.),
 the Gaussian 90(TM) system (copyright 1990, Gaussian, Inc.),
 the Gaussian 88(TM) system (copyright 1988, Gaussian, Inc.),
 the Gaussian 86(TM) system (copyright 1986, Carnegie Mellon
 University), and the Gaussian 82(TM) system (copyright 1983,
 Carnegie Mellon University). Gaussian is a federally registered
 trademark of Gaussian, Inc.
  
 This software contains proprietary and confidential information,
 including trade secrets, belonging to Gaussian, Inc.
  
 This software is provided under written license and may be
 used, copied, transmitted, or stored only in accord with that
 written license.
  
 The following legend is applicable only to US Government
 contracts under FAR:
  
                    RESTRICTED RIGHTS LEGEND
  
 Use, reproduction and disclosure by the US Government is
 subject to restrictions as set forth in subparagraphs (a)
 and (c) of the Commercial Computer Software - Restricted
 Rights clause in FAR 52.227-19.
  
 Gaussian, Inc.
 340 Quinnipiac St., Bldg. 40, Wallingford CT 06492
  
  
 ---------------------------------------------------------------
 Warning -- This program may not be used in any manner that
 competes with the business of Gaussian, Inc. or will provide
 assistance to any competitor of Gaussian, Inc.  The licensee
 of this program is prohibited from giving any competitor of
 Gaussian, Inc. access to this program.  By using this program,
 the user acknowledges that Gaussian, Inc. is engaged in the
 business of creating and licensing software in the field of
 computational chemistry and represents and warrants to the
 licensee that it is not a competitor of Gaussian, Inc. and that
 it will not use this program in any manner prohibited above.
 ---------------------------------------------------------------
  

 Cite this work as:
 Gaussian 16, Revision C.01,
 M. J. Frisch, G. W. Trucks, H. B. Schlegel, G. E. Scuseria, 
 M. A. Robb, J. R. Cheeseman, G. Scalmani, V. Barone, 
 G. A. Petersson, H. Nakatsuji, X. Li, M. Caricato, A. V. Marenich, 
 J. Bloino, B. G. Janesko, R. Gomperts, B. Mennucci, H. P. Hratchian, 
 J. V. Ortiz, A. F. Izmaylov, J. L. Sonnenberg, D. Williams-Young, 
 F. Ding, F. Lipparini, F. Egidi, J. Goings, B. Peng, A. Petrone, 
 T. Henderson, D. Ranasinghe, V. G. Zakrzewski, J. Gao, N. Rega, 
 G. Zheng, W. Liang, M. Hada, M. Ehara, K. Toyota, R. Fukuda, 
 J. Hasegawa, M. Ishida, T. Nakajima, Y. Honda, O. Kitao, H. Nakai, 
 T. Vreven, K. Throssell, J. A. Montgomery, Jr., J. E. Peralta, 
 F. Ogliaro, M. J. Bearpark, J. J. Heyd, E. N. Brothers, K. N. Kudin, 
 V. N. Staroverov, T. A. Keith, R. Kobayashi, J. Normand, 
 K. Raghavachari, A. P. Rendell, J. C. Burant, S. S. Iyengar, 
 J. Tomasi, M. Cossi, J. M. Millam, M. Klene, C. Adamo, R. Cammi, 
 J. W. Ochterski, R. L. Martin, K. Morokuma, O. Farkas, 
 J. B. Foresman, and D. J. Fox, Gaussian, Inc., Wallingford CT, 2019.
 
 ******************************************
 Gaussian 16:  ES64L-G16RevC.01  3-Jul-2019
                28-Dec-2022 
 ******************************************
 %nprocshared=28
 Will use up to   28 processors via shared memory.
 %mem=56GB
 ---------------------------------
 #p opt freq b3lyp/6-31g* em=gd3bj
 ---------------------------------
 1/18=20,19=15,26=3,38=1/1,3;
 2/9=110,12=2,17=6,18=5,40=1/2;
 3/5=1,6=6,7=1,11=2,25=1,30=1,71=1,74=-5,124=41/1,2,3;
 4//1;
 5/5=2,38=5/2;
 6/7=2,8=2,9=2,10=2,28=1/1;
 7//1,2,3,16;
 1/18=20,19=15,26=3/3(2);
 2/9=110/2;
 99//99;
 2/9=110/2;
 3/5=1,6=6,7=1,11=2,25=1,30=1,71=1,74=-5,124=41/1,2,3;
 4/5=5,16=3,69=1/1;
 5/5=2,38=5/2;
 7//1,2,3,16;
 1/18=20,19=15,26=3/3(-5);
 2/9=110/2;
 6/7=2,8=2,9=2,10=2,19=2,28=1/1;
 99/9=1/99;
 Leave Link    1 at Wed Dec 28 10:35:34 2022, MaxMem=  7516192768 cpu:               1.0 elap:               0.0
 (Enter /public/home/jackie_lijiaqi/g16/l101.exe)
 ----------------------
 $$$$Singlemol####0????
 ----------------------
 Symbolic Z-matrix:
 Charge =  0 Multiplicity = 1
 C                     1.82759   0.11729   0.00002 
 C                     0.60347  -0.399     0.00006 
 C                    -0.60347   0.39895  -0.00009 
 C                    -1.8276   -0.11725  0. 
 H                     1.98976   1.18304   0.00025 
 H                     2.70928  -0.50025  -0.00022 
 H                     0.46404  -1.47254  -0.00016 
 H                    -0.46397   1.47248  -0.00024 
 H                    -1.98982  -1.18301  -0.00008 
 H                    -2.70918   0.50042   0.00061 
 
 ITRead=  0  0  0  0  0  0  0  0  0  0
 MicOpt= -1 -1 -1 -1 -1 -1 -1 -1 -1 -1
 NAtoms=     10 NQM=       10 NQMF=       0 NMMI=      0 NMMIF=      0
                NMic=       0 NMicF=      0.
                    Isotopes and Nuclear Properties:
 (Nuclear quadrupole moments (NQMom) in fm**2, nuclear magnetic moments (NMagM)
  in nuclear magnetons)

  Atom         1           2           3           4           5           6           7           8           9          10
 IAtWgt=          12          12          12          12           1           1           1           1           1           1
 AtmWgt=  12.0000000  12.0000000  12.0000000  12.0000000   1.0078250   1.0078250   1.0078250   1.0078250   1.0078250   1.0078250
 NucSpn=           0           0           0           0           1           1           1           1           1           1
 AtZEff=  -0.0000000  -0.0000000  -0.0000000  -0.0000000  -0.0000000  -0.0000000  -0.0000000  -0.0000000  -0.0000000  -0.0000000
 NQMom=    0.0000000   0.0000000   0.0000000   0.0000000   0.0000000   0.0000000   0.0000000   0.0000000   0.0000000   0.0000000
 NMagM=    0.0000000   0.0000000   0.0000000   0.0000000   2.7928460   2.7928460   2.7928460   2.7928460   2.7928460   2.7928460
 AtZNuc=   6.0000000   6.0000000   6.0000000   6.0000000   1.0000000   1.0000000   1.0000000   1.0000000   1.0000000   1.0000000
 Leave Link  101 at Wed Dec 28 10:35:34 2022, MaxMem=  7516192768 cpu:               3.7 elap:               0.1
 (Enter /public/home/jackie_lijiaqi/g16/l103.exe)

 GradGradGradGradGradGradGradGradGradGradGradGradGradGradGradGradGradGrad
 Berny optimization.
 Initialization pass.
                           ----------------------------
                           !    Initial Parameters    !
                           ! (Angstroms and Degrees)  !
 --------------------------                            --------------------------
 ! Name  Definition              Value          Derivative Info.                !
 --------------------------------------------------------------------------------
 ! R1    R(1,2)                  1.3285         estimate D2E/DX2                !
 ! R2    R(1,5)                  1.078          estimate D2E/DX2                !
 ! R3    R(1,6)                  1.0764         estimate D2E/DX2                !
 ! R4    R(2,3)                  1.4469         estimate D2E/DX2                !
 ! R5    R(2,7)                  1.0826         estimate D2E/DX2                !
 ! R6    R(3,4)                  1.3285         estimate D2E/DX2                !
 ! R7    R(3,8)                  1.0826         estimate D2E/DX2                !
 ! R8    R(4,9)                  1.078          estimate D2E/DX2                !
 ! R9    R(4,10)                 1.0764         estimate D2E/DX2                !
 ! A1    A(2,1,5)              121.5204         estimate D2E/DX2                !
 ! A2    A(2,1,6)              122.1241         estimate D2E/DX2                !
 ! A3    A(5,1,6)              116.3555         estimate D2E/DX2                !
 ! A4    A(1,2,3)              123.6616         estimate D2E/DX2                !
 ! A5    A(1,2,7)              120.2686         estimate D2E/DX2                !
 ! A6    A(3,2,7)              116.0698         estimate D2E/DX2                !
 ! A7    A(2,3,4)              123.6654         estimate D2E/DX2                !
 ! A8    A(2,3,8)              116.0663         estimate D2E/DX2                !
 ! A9    A(4,3,8)              120.2683         estimate D2E/DX2                !
 ! A10   A(3,4,9)              121.5193         estimate D2E/DX2                !
 ! A11   A(3,4,10)             122.1187         estimate D2E/DX2                !
 ! A12   A(9,4,10)             116.3619         estimate D2E/DX2                !
 ! D1    D(5,1,2,3)              0.0244         estimate D2E/DX2                !
 ! D2    D(5,1,2,7)           -179.9991         estimate D2E/DX2                !
 ! D3    D(6,1,2,3)           -179.9776         estimate D2E/DX2                !
 ! D4    D(6,1,2,7)             -0.0011         estimate D2E/DX2                !
 ! D5    D(1,2,3,4)           -179.9977         estimate D2E/DX2                !
 ! D6    D(1,2,3,8)             -0.0007         estimate D2E/DX2                !
 ! D7    D(7,2,3,4)              0.0249         estimate D2E/DX2                !
 ! D8    D(7,2,3,8)           -179.9781         estimate D2E/DX2                !
 ! D9    D(2,3,4,9)             -0.0169         estimate D2E/DX2                !
 ! D10   D(2,3,4,10)           179.9543         estimate D2E/DX2                !
 ! D11   D(8,3,4,9)            179.9863         estimate D2E/DX2                !
 ! D12   D(8,3,4,10)            -0.0426         estimate D2E/DX2                !
 --------------------------------------------------------------------------------
 Trust Radius=3.00D-01 FncErr=1.00D-07 GrdErr=1.00D-06 EigMax=2.50D+02 EigMin=1.00D-04
 Number of steps in this run=     43 maximum allowed number of steps=    100.
 GradGradGradGradGradGradGradGradGradGradGradGradGradGradGradGradGradGrad

 Leave Link  103 at Wed Dec 28 10:35:34 2022, MaxMem=  7516192768 cpu:               0.2 elap:               0.0
 (Enter /public/home/jackie_lijiaqi/g16/l202.exe)
                          Input orientation:                          
 ---------------------------------------------------------------------
 Center     Atomic      Atomic             Coordinates (Angstroms)
 Number     Number       Type             X           Y           Z
 ---------------------------------------------------------------------
      1          6           0        1.827590    0.117290    0.000018
      2          6           0        0.603472   -0.399002    0.000062
      3          6           0       -0.603472    0.398949   -0.000091
      4          6           0       -1.827598   -0.117250   -0.000002
      5          1           0        1.989759    1.183040    0.000254
      6          1           0        2.709281   -0.500249   -0.000222
      7          1           0        0.464040   -1.472538   -0.000164
      8          1           0       -0.463974    1.472480   -0.000237
      9          1           0       -1.989821   -1.183010   -0.000077
     10          1           0       -2.709181    0.500424    0.000607
 ---------------------------------------------------------------------
                    Distance matrix (angstroms):
                    1          2          3          4          5
     1  C    0.000000
     2  C    1.328541   0.000000
     3  C    2.447324   1.446872   0.000000
     4  C    3.662705   2.447343   1.328513   0.000000
     5  H    1.078018   2.103485   2.709178   4.032737   0.000000
     6  H    1.076445   2.108242   3.432621   4.553017   1.830621
     7  H    2.094474   1.082553   2.154541   2.662407   3.062664
     8  H    2.662293   2.154504   1.082556   2.094448   2.470745
     9  H    4.032791   2.709213   2.103463   1.078036   4.629822
    10  H    4.552920   3.432585   2.108153   1.076434   4.748263
                    6          7          8          9         10
     6  H    0.000000
     7  H    2.446723   0.000000
     8  H    3.736470   3.087773   0.000000
     9  H    4.748444   2.470882   3.062652   0.000000
    10  H    5.510089   3.736564   2.446599   1.830691   0.000000
 Stoichiometry    C4H6
 Framework group  C1[X(C4H6)]
 Deg. of freedom    24
 Full point group                 C1      NOp   1
 Largest Abelian subgroup         C1      NOp   1
 Largest concise Abelian subgroup C1      NOp   1
                         Standard orientation:                         
 ---------------------------------------------------------------------
 Center     Atomic      Atomic             Coordinates (Angstroms)
 Number     Number       Type             X           Y           Z
 ---------------------------------------------------------------------
      1          6           0       -1.828197   -0.107384    0.000015
      2          6           0       -0.601300    0.402268    0.000059
      3          6           0        0.601304   -0.402210   -0.000094
      4          6           0        1.828208    0.107349   -0.000005
      5          1           0       -1.996137   -1.172240    0.000251
      6          1           0       -2.706529    0.514922   -0.000225
      7          1           0       -0.456053    1.475033   -0.000167
      8          1           0        0.455991   -1.474970   -0.000240
      9          1           0        1.996203    1.172214   -0.000080
     10          1           0        2.706432   -0.515092    0.000604
 ---------------------------------------------------------------------
 Rotational constants (GHZ):          42.6606205           4.5078096           4.0770056
 Leave Link  202 at Wed Dec 28 10:35:34 2022, MaxMem=  7516192768 cpu:               0.2 elap:               0.0
 (Enter /public/home/jackie_lijiaqi/g16/l301.exe)
 Standard basis: 6-31G(d) (6D, 7F)
 Ernie: Thresh=  0.10000D-02 Tol=  0.10000D-05 Strict=F.
 There are    72 symmetry adapted cartesian basis functions of A   symmetry.
 There are    72 symmetry adapted basis functions of A   symmetry.
    72 basis functions,   136 primitive gaussians,    72 cartesian basis functions
    15 alpha electrons       15 beta electrons
       nuclear repulsion energy       104.5016079597 Hartrees.
 IExCor=  402 DFT=T Ex+Corr=B3LYP ExCW=0 ScaHFX=  0.200000
 ScaDFX=  0.800000  0.720000  1.000000  0.810000 ScalE2=  1.000000  1.000000
 IRadAn=      5 IRanWt=     -1 IRanGd=            0 ICorTp=0 IEmpDi=141
 NAtoms=   10 NActive=   10 NUniq=   10 SFac= 1.00D+00 NAtFMM=   60 NAOKFM=F Big=F
 Integral buffers will be    131072 words long.
 Raffenetti 2 integral format.
 Two-electron integral symmetry is turned on.
 R6Disp:  Grimme-D3(BJ) Dispersion energy=       -0.0108706915 Hartrees.
 Nuclear repulsion after empirical dispersion term =      104.4907372682 Hartrees.
 Leave Link  301 at Wed Dec 28 10:35:34 2022, MaxMem=  7516192768 cpu:               0.7 elap:               0.0
 (Enter /public/home/jackie_lijiaqi/g16/l302.exe)
 NPDir=0 NMtPBC=     1 NCelOv=     1 NCel=       1 NClECP=     1 NCelD=      1
         NCelK=      1 NCelE2=     1 NClLst=     1 CellRange=     0.0.
 One-electron integrals computed using PRISM.
 One-electron integral symmetry used in STVInt
 NBasis=    72 RedAO= T EigKep=  3.39D-03  NBF=    72
 NBsUse=    72 1.00D-06 EigRej= -1.00D+00 NBFU=    72
 Precomputing XC quadrature grid using
 IXCGrd= 4 IRadAn=           5 IRanWt=          -1 IRanGd=           0 AccXCQ= 0.00D+00.
 Generated NRdTot=       0 NPtTot=           0 NUsed=           0 NTot=          32
 NSgBfM=    72    72    72    72    72 MxSgAt=    10 MxSgA2=    10.
 Leave Link  302 at Wed Dec 28 10:35:34 2022, MaxMem=  7516192768 cpu:               2.2 elap:               0.1
 (Enter /public/home/jackie_lijiaqi/g16/l303.exe)
 DipDrv:  MaxL=1.
 Leave Link  303 at Wed Dec 28 10:35:34 2022, MaxMem=  7516192768 cpu:               0.3 elap:               0.0
 (Enter /public/home/jackie_lijiaqi/g16/l401.exe)
 ExpMin= 1.61D-01 ExpMax= 3.05D+03 ExpMxC= 4.57D+02 IAcc=3 IRadAn=         5 AccDes= 0.00D+00
 Harris functional with IExCor=  402 and IRadAn=       5 diagonalized for initial guess.
 HarFok:  IExCor=  402 AccDes= 0.00D+00 IRadAn=         5 IDoV= 1 UseB2=F ITyADJ=14
 ICtDFT=  3500011 ScaDFX=  1.000000  1.000000  1.000000  1.000000
 FoFCou: FMM=F IPFlag=           0 FMFlag=      100000 FMFlg1=           0
         NFxFlg=           0 DoJE=T BraDBF=F KetDBF=T FulRan=T
         wScrn=  0.000000 ICntrl=       500 IOpCl=  0 I1Cent=   200000004 NGrid=           0
         NMat0=    1 NMatS0=      1 NMatT0=    0 NMatD0=    1 NMtDS0=    0 NMtDT0=    0
 Petite list used in FoFCou.
 Harris En= -156.054056927127    
 JPrj=0 DoOrth=F DoCkMO=F.
 Leave Link  401 at Wed Dec 28 10:35:34 2022, MaxMem=  7516192768 cpu:               4.1 elap:               0.2
 (Enter /public/home/jackie_lijiaqi/g16/l502.exe)
 Keep R1 ints in memory in canonical form, NReq=28585766.
 FoFCou: FMM=F IPFlag=           0 FMFlag=           0 FMFlg1=           0
         NFxFlg=           0 DoJE=F BraDBF=F KetDBF=F FulRan=T
         wScrn=  0.000000 ICntrl=       600 IOpCl=  0 I1Cent=           0 NGrid=           0
         NMat0=    1 NMatS0=   2628 NMatT0=    0 NMatD0=    1 NMtDS0=    0 NMtDT0=    0
 Symmetry not used in FoFCou.
 Two-electron integral symmetry not used.
 Closed shell SCF:
 Using DIIS extrapolation, IDIIS=  1040.
 NGot=  7516192768 LenX=  7512724660 LenY=  7512719035
 Requested convergence on RMS density matrix=1.00D-08 within 128 cycles.
 Requested convergence on MAX density matrix=1.00D-06.
 Requested convergence on             energy=1.00D-06.
 No special actions if energy rises.
 Integral accuracy reduced to 1.0D-05 until final iterations.

 Cycle   1  Pass 0  IDiag  1:
 E= -155.858679399183    
 DIIS: error= 5.29D-02 at cycle   1 NSaved=   1.
 NSaved= 1 IEnMin= 1 EnMin= -155.858679399183     IErMin= 1 ErrMin= 5.29D-02
 ErrMax= 5.29D-02  0.00D+00 EMaxC= 1.00D-01 BMatC= 1.24D-01 BMatP= 1.24D-01
 IDIUse=3 WtCom= 4.71D-01 WtEn= 5.29D-01
 Coeff-Com:  0.100D+01
 Coeff-En:   0.100D+01
 Coeff:      0.100D+01
 Gap=     0.207 Goal=   None    Shift=    0.000
 GapD=    0.207 DampG=1.000 DampE=0.500 DampFc=0.5000 IDamp=-1.
 Damping current iteration by 5.00D-01
 RMSDP=1.05D-02 MaxDP=1.19D-01              OVMax= 1.62D-01

 Cycle   2  Pass 0  IDiag  1:
 E= -155.929830368649     Delta-E=       -0.071150969466 Rises=F Damp=T
 DIIS: error= 8.20D-03 at cycle   2 NSaved=   2.
 NSaved= 2 IEnMin= 2 EnMin= -155.929830368649     IErMin= 2 ErrMin= 8.20D-03
 ErrMax= 8.20D-03  0.00D+00 EMaxC= 1.00D-01 BMatC= 3.81D-03 BMatP= 1.24D-01
 IDIUse=3 WtCom= 9.18D-01 WtEn= 8.20D-02
 Coeff-Com: -0.156D-01 0.102D+01
 Coeff-En:   0.000D+00 0.100D+01
 Coeff:     -0.143D-01 0.101D+01
 Gap=     0.211 Goal=   None    Shift=    0.000
 RMSDP=1.93D-03 MaxDP=1.53D-02 DE=-7.12D-02 OVMax= 8.23D-02

 Cycle   3  Pass 0  IDiag  1:
 E= -156.001356942954     Delta-E=       -0.071526574305 Rises=F Damp=F
 DIIS: error= 3.73D-03 at cycle   3 NSaved=   3.
 NSaved= 3 IEnMin= 3 EnMin= -156.001356942954     IErMin= 3 ErrMin= 3.73D-03
 ErrMax= 3.73D-03  0.00D+00 EMaxC= 1.00D-01 BMatC= 7.56D-04 BMatP= 3.81D-03
 IDIUse=3 WtCom= 9.63D-01 WtEn= 3.73D-02
 Coeff-Com: -0.196D-01 0.238D+00 0.782D+00
 Coeff-En:   0.000D+00 0.000D+00 0.100D+01
 Coeff:     -0.188D-01 0.229D+00 0.790D+00
 Gap=     0.210 Goal=   None    Shift=    0.000
 RMSDP=7.75D-04 MaxDP=1.07D-02 DE=-7.15D-02 OVMax= 2.60D-02

 Cycle   4  Pass 0  IDiag  1:
 E= -156.001098197032     Delta-E=        0.000258745922 Rises=F Damp=F
 DIIS: error= 4.17D-03 at cycle   4 NSaved=   4.
 NSaved= 4 IEnMin= 3 EnMin= -156.001356942954     IErMin= 3 ErrMin= 3.73D-03
 ErrMax= 4.17D-03  0.00D+00 EMaxC= 1.00D-01 BMatC= 1.05D-03 BMatP= 7.56D-04
 IDIUse=3 WtCom= 1.34D-01 WtEn= 8.66D-01
 Coeff-Com: -0.112D-01 0.432D-01 0.541D+00 0.427D+00
 Coeff-En:   0.000D+00 0.000D+00 0.555D+00 0.445D+00
 Coeff:     -0.151D-02 0.579D-02 0.553D+00 0.443D+00
 Gap=     0.210 Goal=   None    Shift=    0.000
 RMSDP=3.61D-04 MaxDP=5.69D-03 DE= 2.59D-04 OVMax= 1.34D-02

 Cycle   5  Pass 0  IDiag  1:
 E= -156.002163518129     Delta-E=       -0.001065321098 Rises=F Damp=F
 DIIS: error= 4.56D-04 at cycle   5 NSaved=   5.
 NSaved= 5 IEnMin= 5 EnMin= -156.002163518129     IErMin= 5 ErrMin= 4.56D-04
 ErrMax= 4.56D-04  0.00D+00 EMaxC= 1.00D-01 BMatC= 1.53D-05 BMatP= 7.56D-04
 IDIUse=3 WtCom= 9.95D-01 WtEn= 4.56D-03
 Coeff-Com:  0.489D-02-0.103D-01 0.145D+00 0.112D+00 0.749D+00
 Coeff-En:   0.000D+00 0.000D+00 0.000D+00 0.000D+00 0.100D+01
 Coeff:      0.487D-02-0.102D-01 0.144D+00 0.111D+00 0.750D+00
 Gap=     0.210 Goal=   None    Shift=    0.000
 RMSDP=6.70D-05 MaxDP=6.05D-04 DE=-1.07D-03 OVMax= 9.39D-04

 Cycle   6  Pass 0  IDiag  1:
 E= -156.002179747452     Delta-E=       -0.000016229322 Rises=F Damp=F
 DIIS: error= 2.10D-05 at cycle   6 NSaved=   6.
 NSaved= 6 IEnMin= 6 EnMin= -156.002179747452     IErMin= 6 ErrMin= 2.10D-05
 ErrMax= 2.10D-05  0.00D+00 EMaxC= 1.00D-01 BMatC= 2.09D-08 BMatP= 1.53D-05
 IDIUse=1 WtCom= 1.00D+00 WtEn= 0.00D+00
 Coeff-Com:  0.111D-02-0.253D-02 0.151D-01 0.102D-01 0.123D+00 0.853D+00
 Coeff:      0.111D-02-0.253D-02 0.151D-01 0.102D-01 0.123D+00 0.853D+00
 Gap=     0.210 Goal=   None    Shift=    0.000
 RMSDP=3.29D-06 MaxDP=2.76D-05 DE=-1.62D-05 OVMax= 6.97D-05

 Initial convergence to 1.0D-05 achieved.  Increase integral accuracy.
 Cycle   7  Pass 1  IDiag  1:
 E= -156.002175291106     Delta-E=        0.000004456345 Rises=F Damp=F
 DIIS: error= 2.26D-06 at cycle   1 NSaved=   1.
 NSaved= 1 IEnMin= 1 EnMin= -156.002175291106     IErMin= 1 ErrMin= 2.26D-06
 ErrMax= 2.26D-06  0.00D+00 EMaxC= 1.00D-01 BMatC= 5.40D-10 BMatP= 5.40D-10
 IDIUse=1 WtCom= 1.00D+00 WtEn= 0.00D+00
 Coeff-Com:  0.100D+01
 Coeff:      0.100D+01
 Gap=     0.210 Goal=   None    Shift=    0.000
 RMSDP=3.29D-06 MaxDP=2.76D-05 DE= 4.46D-06 OVMax= 1.55D-05

 Cycle   8  Pass 1  IDiag  1:
 E= -156.002175291473     Delta-E=       -0.000000000366 Rises=F Damp=F
 DIIS: error= 1.94D-06 at cycle   2 NSaved=   2.
 NSaved= 2 IEnMin= 2 EnMin= -156.002175291473     IErMin= 2 ErrMin= 1.94D-06
 ErrMax= 1.94D-06  0.00D+00 EMaxC= 1.00D-01 BMatC= 2.87D-10 BMatP= 5.40D-10
 IDIUse=1 WtCom= 1.00D+00 WtEn= 0.00D+00
 Coeff-Com:  0.410D+00 0.590D+00
 Coeff:      0.410D+00 0.590D+00
 Gap=     0.210 Goal=   None    Shift=    0.000
 RMSDP=2.92D-07 MaxDP=6.43D-06 DE=-3.66D-10 OVMax= 9.95D-06

 Cycle   9  Pass 1  IDiag  1:
 E= -156.002175291717     Delta-E=       -0.000000000245 Rises=F Damp=F
 DIIS: error= 1.03D-06 at cycle   3 NSaved=   3.
 NSaved= 3 IEnMin= 3 EnMin= -156.002175291717     IErMin= 3 ErrMin= 1.03D-06
 ErrMax= 1.03D-06  0.00D+00 EMaxC= 1.00D-01 BMatC= 6.72D-11 BMatP= 2.87D-10
 IDIUse=1 WtCom= 1.00D+00 WtEn= 0.00D+00
 Coeff-Com:  0.163D+00 0.345D+00 0.492D+00
 Coeff:      0.163D+00 0.345D+00 0.492D+00
 Gap=     0.210 Goal=   None    Shift=    0.000
 RMSDP=1.12D-07 MaxDP=2.58D-06 DE=-2.45D-10 OVMax= 4.29D-06

 Cycle  10  Pass 1  IDiag  1:
 E= -156.002175291781     Delta-E=       -0.000000000064 Rises=F Damp=F
 DIIS: error= 1.97D-07 at cycle   4 NSaved=   4.
 NSaved= 4 IEnMin= 4 EnMin= -156.002175291781     IErMin= 4 ErrMin= 1.97D-07
 ErrMax= 1.97D-07  0.00D+00 EMaxC= 1.00D-01 BMatC= 4.54D-12 BMatP= 6.72D-11
 IDIUse=1 WtCom= 1.00D+00 WtEn= 0.00D+00
 Coeff-Com:  0.341D-01 0.105D+00 0.255D+00 0.606D+00
 Coeff:      0.341D-01 0.105D+00 0.255D+00 0.606D+00
 Gap=     0.210 Goal=   None    Shift=    0.000
 RMSDP=3.95D-08 MaxDP=5.62D-07 DE=-6.37D-11 OVMax= 1.31D-06

 Cycle  11  Pass 1  IDiag  1:
 E= -156.002175291786     Delta-E=       -0.000000000005 Rises=F Damp=F
 DIIS: error= 4.71D-08 at cycle   5 NSaved=   5.
 NSaved= 5 IEnMin= 5 EnMin= -156.002175291786     IErMin= 5 ErrMin= 4.71D-08
 ErrMax= 4.71D-08  0.00D+00 EMaxC= 1.00D-01 BMatC= 2.64D-13 BMatP= 4.54D-12
 IDIUse=1 WtCom= 1.00D+00 WtEn= 0.00D+00
 Coeff-Com: -0.389D-02 0.683D-02 0.528D-01 0.257D+00 0.687D+00
 Coeff:     -0.389D-02 0.683D-02 0.528D-01 0.257D+00 0.687D+00
 Gap=     0.210 Goal=   None    Shift=    0.000
 RMSDP=9.56D-09 MaxDP=1.89D-07 DE=-4.60D-12 OVMax= 4.02D-07

 SCF Done:  E(RB3LYP) =  -156.002175292     A.U. after   11 cycles
            NFock= 11  Conv=0.96D-08     -V/T= 2.0092
 KE= 1.545750711616D+02 PE=-5.695701215083D+02 EE= 1.545021377867D+02
 Leave Link  502 at Wed Dec 28 10:35:35 2022, MaxMem=  7516192768 cpu:              17.6 elap:               0.7
 (Enter /public/home/jackie_lijiaqi/g16/l601.exe)
 Copying SCF densities to generalized density rwf, IOpCl= 0 IROHF=0.

 **********************************************************************

            Population analysis using the SCF Density.

 **********************************************************************

 Orbital symmetries:
       Occupied  (A) (A) (A) (A) (A) (A) (A) (A) (A) (A) (A) (A)
                 (A) (A) (A)
       Virtual   (A) (A) (A) (A) (A) (A) (A) (A) (A) (A) (A) (A)
                 (A) (A) (A) (A) (A) (A) (A) (A) (A) (A) (A) (A)
                 (A) (A) (A) (A) (A) (A) (A) (A) (A) (A) (A) (A)
                 (A) (A) (A) (A) (A) (A) (A) (A) (A) (A) (A) (A)
                 (A) (A) (A) (A) (A) (A) (A) (A) (A)
 The electronic state is 1-A.
 Alpha  occ. eigenvalues --  -10.18838 -10.18801 -10.17957 -10.17956  -0.80599
 Alpha  occ. eigenvalues --   -0.73244  -0.60432  -0.55322  -0.46686  -0.46136
 Alpha  occ. eigenvalues --   -0.39272  -0.38563  -0.34461  -0.32259  -0.22979
 Alpha virt. eigenvalues --   -0.01957   0.08828   0.11665   0.12852   0.13476
 Alpha virt. eigenvalues --    0.17969   0.19749   0.21407   0.32902   0.33851
 Alpha virt. eigenvalues --    0.40409   0.47847   0.51369   0.52892   0.57862
 Alpha virt. eigenvalues --    0.60836   0.62913   0.66142   0.67388   0.67734
 Alpha virt. eigenvalues --    0.70136   0.84978   0.86413   0.86834   0.89463
 Alpha virt. eigenvalues --    0.95003   0.95025   0.96941   1.07712   1.12507
 Alpha virt. eigenvalues --    1.13423   1.32251   1.34744   1.36057   1.42935
 Alpha virt. eigenvalues --    1.54112   1.65776   1.76971   1.83329   1.88845
 Alpha virt. eigenvalues --    1.95525   2.07488   2.11290   2.12747   2.17325
 Alpha virt. eigenvalues --    2.33274   2.41767   2.42201   2.49011   2.62043
 Alpha virt. eigenvalues --    2.74599   2.94607   3.01065   4.10041   4.13182
 Alpha virt. eigenvalues --    4.21384   4.44871
          Condensed to atoms (all electrons):
               1          2          3          4          5          6
     1  C    5.067399   0.639442  -0.027711   0.004008   0.369618   0.362851
     2  C    0.639442   4.728217   0.464342  -0.027718  -0.036322  -0.019483
     3  C   -0.027711   0.464342   4.728199   0.639452  -0.011797   0.004193
     4  C    0.004008  -0.027718   0.639452   5.067392   0.000386  -0.000249
     5  H    0.369618  -0.036322  -0.011797   0.000386   0.568091  -0.043382
     6  H    0.362851  -0.019483   0.004193  -0.000249  -0.043382   0.559370
     7  H   -0.053114   0.367389  -0.053191  -0.006981   0.006053  -0.007171
     8  H   -0.006982  -0.053194   0.367390  -0.053116   0.006188   0.000001
     9  H    0.000386  -0.011797  -0.036323   0.369616   0.000015  -0.000005
    10  H   -0.000249   0.004194  -0.019484   0.362851  -0.000005   0.000003
               7          8          9         10
     1  C   -0.053114  -0.006982   0.000386  -0.000249
     2  C    0.367389  -0.053194  -0.011797   0.004194
     3  C   -0.053191   0.367390  -0.036323  -0.019484
     4  C   -0.006981  -0.053116   0.369616   0.362851
     5  H    0.006053   0.006188   0.000015  -0.000005
     6  H   -0.007171   0.000001  -0.000005   0.000003
     7  H    0.609264   0.005871   0.006187   0.000001
     8  H    0.005871   0.609272   0.006054  -0.007173
     9  H    0.006187   0.006054   0.568091  -0.043375
    10  H    0.000001  -0.007173  -0.043375   0.559367
 Mulliken charges:
               1
     1  C   -0.355646
     2  C   -0.055070
     3  C   -0.055070
     4  C   -0.355641
     5  H    0.141155
     6  H    0.143872
     7  H    0.125692
     8  H    0.125688
     9  H    0.141152
    10  H    0.143870
 Sum of Mulliken charges =  -0.00000
 Mulliken charges with hydrogens summed into heavy atoms:
               1
     1  C   -0.070619
     2  C    0.070621
     3  C    0.070618
     4  C   -0.070620
 Electronic spatial extent (au):  <R**2>=            330.1602
 Charge=             -0.0000 electrons
 Dipole moment (field-independent basis, Debye):
    X=             -0.0001    Y=             -0.0000    Z=              0.0001  Tot=              0.0002
 Quadrupole moment (field-independent basis, Debye-Ang):
   XX=            -22.9052   YY=            -22.6121   ZZ=            -27.7912
   XY=              0.0487   XZ=              0.0014   YZ=             -0.0008
 Traceless Quadrupole moment (field-independent basis, Debye-Ang):
   XX=              1.5310   YY=              1.8241   ZZ=             -3.3550
   XY=              0.0487   XZ=              0.0014   YZ=             -0.0008
 Octapole moment (field-independent basis, Debye-Ang**2):
  XXX=             -0.0014  YYY=              0.0001  ZZZ=              0.0002  XYY=              0.0003
  XXY=             -0.0005  XXZ=              0.0027  XZZ=              0.0000  YZZ=             -0.0000
  YYZ=             -0.0004  XYZ=             -0.0000
 Hexadecapole moment (field-independent basis, Debye-Ang**3):
 XXXX=           -331.4598 YYYY=            -63.2825 ZZZZ=            -28.7556 XXXY=             -5.2799
 XXXZ=              0.0127 YYYX=              1.4991 YYYZ=             -0.0002 ZZZX=             -0.0004
 ZZZY=              0.0003 XXYY=            -65.6100 XXZZ=            -70.9031 YYZZ=            -16.9352
 XXYZ=             -0.0044 YYXZ=             -0.0005 ZZXY=              0.1569
 N-N= 1.044907372682D+02 E-N=-5.695701185471D+02  KE= 1.545750711616D+02
 No NMR shielding tensors so no spin-rotation constants.
 Leave Link  601 at Wed Dec 28 10:35:35 2022, MaxMem=  7516192768 cpu:               1.8 elap:               0.1
 (Enter /public/home/jackie_lijiaqi/g16/l701.exe)
 ... and contract with generalized density number  0.
 Compute integral first derivatives.
 R6Disp: Adding Grimme-D3(BJ) dispersion energy 1st derivatives to the gradient.
 Leave Link  701 at Wed Dec 28 10:35:35 2022, MaxMem=  7516192768 cpu:               2.2 elap:               0.1
 (Enter /public/home/jackie_lijiaqi/g16/l702.exe)
 L702 exits ... SP integral derivatives will be done elsewhere.
 Leave Link  702 at Wed Dec 28 10:35:35 2022, MaxMem=  7516192768 cpu:               0.2 elap:               0.0
 (Enter /public/home/jackie_lijiaqi/g16/l703.exe)
 Integral derivatives from FoFJK, PRISM(SPDF).
 Compute integral first derivatives, UseDBF=F ICtDFT=           0.
 Calling FoFJK, ICntrl=      2127 FMM=F ISym2X=0 I1Cent= 0 IOpClX= 0 NMat=1 NMatS=1 NMatT=0.
 FoFJK:  IHMeth= 1 ICntrl=    2127 DoSepK=F KAlg= 0 I1Cent=           0 FoldK=F
 IRaf=         0 NMat=       1 IRICut=       1 DoRegI=T DoRafI=F ISym2E= 0 IDoP0=0 IntGTp=1.
 FoFCou: FMM=F IPFlag=           0 FMFlag=      100000 FMFlg1=         800
         NFxFlg=           0 DoJE=F BraDBF=F KetDBF=F FulRan=T
         wScrn=  0.000000 ICntrl=      2127 IOpCl=  0 I1Cent=           0 NGrid=           0
         NMat0=    1 NMatS0=      1 NMatT0=    0 NMatD0=    1 NMtDS0=    0 NMtDT0=    0
 Symmetry not used in FoFCou.
 Leave Link  703 at Wed Dec 28 10:35:36 2022, MaxMem=  7516192768 cpu:               7.6 elap:               0.3
 (Enter /public/home/jackie_lijiaqi/g16/l716.exe)
 Dipole        =-2.04034238D-05-5.96658640D-06 5.59657830D-05
 ***** Axes restored to original set *****
 -------------------------------------------------------------------
 Center     Atomic                   Forces (Hartrees/Bohr)
 Number     Number              X              Y              Z
 -------------------------------------------------------------------
      1        6           0.007778336    0.001135497    0.000007097
      2        6          -0.005711846   -0.002139351   -0.000052233
      3        6           0.005748394    0.002154757    0.000016748
      4        6          -0.007794870   -0.001159701    0.000024249
      5        1           0.000744715    0.006966128   -0.000006087
      6        1           0.005402788   -0.004095541    0.000009186
      7        1           0.000216681   -0.005391277    0.000006003
      8        1          -0.000218511    0.005390074    0.000015085
      9        1          -0.000750654   -0.006951074    0.000007164
     10        1          -0.005415033    0.004090488   -0.000027211
 -------------------------------------------------------------------
 Cartesian Forces:  Max     0.007794870 RMS     0.003859986
 Leave Link  716 at Wed Dec 28 10:35:36 2022, MaxMem=  7516192768 cpu:               0.3 elap:               0.0
 (Enter /public/home/jackie_lijiaqi/g16/l103.exe)

 GradGradGradGradGradGradGradGradGradGradGradGradGradGradGradGradGradGrad
 Berny optimization.
 FormGI is forming the generalized inverse of G from B-inverse, IUseBI=4.
 Internal  Forces:  Max     0.014425678 RMS     0.004799203
 Search for a local minimum.
 Step number   1 out of a maximum of   43
 All quantities printed in internal units (Hartrees-Bohrs-Radians)
 RMS Force = .47992D-02 SwitMx=.10000D-02 MixMth= 1
 Mixed Optimization -- RFO/linear search
 Second derivative matrix not updated -- first step.
 ITU=  0
     Eigenvalues ---    0.01469   0.02282   0.02282   0.03034   0.03034
     Eigenvalues ---    0.03034   0.03034   0.16000   0.16000   0.16000
     Eigenvalues ---    0.16000   0.16000   0.16000   0.22000   0.22000
     Eigenvalues ---    0.35687   0.35688   0.36233   0.36235   0.36427
     Eigenvalues ---    0.36429   0.38658   0.59851   0.59858
 RFO step:  Lambda=-1.66511047D-03 EMin= 1.46872428D-02
 Linear search not attempted -- first point.
 Iteration  1 RMS(Cart)=  0.02222341 RMS(Int)=  0.00003477
 Iteration  2 RMS(Cart)=  0.00005497 RMS(Int)=  0.00000046
 Iteration  3 RMS(Cart)=  0.00000000 RMS(Int)=  0.00000046
 ITry= 1 IFail=0 DXMaxC= 5.00D-02 DCOld= 1.00D+10 DXMaxT= 3.00D-01 DXLimC= 3.00D+00 Rises=F
 Variable       Old X    -DE/DX   Delta X   Delta X   Delta X     New X
                                 (Linear)    (Quad)   (Total)
    R1        2.51058   0.01439   0.00000   0.02397   0.02397   2.53455
    R2        2.03716   0.00700   0.00000   0.01923   0.01923   2.05638
    R3        2.03419   0.00677   0.00000   0.01851   0.01851   2.05270
    R4        2.73419   0.00898   0.00000   0.02312   0.02312   2.75731
    R5        2.04573   0.00532   0.00000   0.01483   0.01483   2.06056
    R6        2.51053   0.01443   0.00000   0.02403   0.02403   2.53456
    R7        2.04574   0.00532   0.00000   0.01483   0.01483   2.06056
    R8        2.03719   0.00698   0.00000   0.01919   0.01919   2.05638
    R9        2.03417   0.00678   0.00000   0.01853   0.01853   2.05270
    A1        2.12093  -0.00025   0.00000  -0.00155  -0.00155   2.11938
    A2        2.13147  -0.00013   0.00000  -0.00083  -0.00083   2.13064
    A3        2.03079   0.00038   0.00000   0.00238   0.00238   2.03317
    A4        2.15830   0.00218   0.00000   0.00985   0.00985   2.16815
    A5        2.09908  -0.00202   0.00000  -0.01068  -0.01068   2.08841
    A6        2.02580  -0.00016   0.00000   0.00083   0.00083   2.02663
    A7        2.15837   0.00217   0.00000   0.00981   0.00981   2.16818
    A8        2.02574  -0.00016   0.00000   0.00086   0.00086   2.02660
    A9        2.09908  -0.00202   0.00000  -0.01067  -0.01067   2.08841
   A10        2.12091  -0.00025   0.00000  -0.00153  -0.00153   2.11938
   A11        2.13137  -0.00012   0.00000  -0.00076  -0.00076   2.13061
   A12        2.03090   0.00037   0.00000   0.00230   0.00230   2.03319
    D1        0.00043  -0.00001   0.00000  -0.00048  -0.00048  -0.00006
    D2       -3.14158   0.00000   0.00000   0.00007   0.00007  -3.14151
    D3       -3.14120  -0.00002   0.00000  -0.00056  -0.00056   3.14142
    D4       -0.00002  -0.00000   0.00000  -0.00001  -0.00001  -0.00003
    D5       -3.14155   0.00000   0.00000   0.00009   0.00009  -3.14146
    D6       -0.00001   0.00001   0.00000   0.00026   0.00026   0.00025
    D7        0.00044  -0.00001   0.00000  -0.00043  -0.00044  -0.00000
    D8       -3.14121  -0.00001   0.00000  -0.00027  -0.00027  -3.14148
    D9       -0.00029   0.00001   0.00000   0.00030   0.00030   0.00000
   D10        3.14080   0.00003   0.00000   0.00092   0.00092  -3.14147
   D11        3.14135   0.00000   0.00000   0.00012   0.00012   3.14148
   D12       -0.00074   0.00002   0.00000   0.00075   0.00075   0.00000
         Item               Value     Threshold  Converged?
 Maximum Force            0.014426     0.000450     NO 
 RMS     Force            0.004799     0.000300     NO 
 Maximum Displacement     0.049986     0.001800     NO 
 RMS     Displacement     0.022244     0.001200     NO 
 Predicted change in Energy=-8.358794D-04
 Lowest energy point so far.  Saving SCF results.
 GradGradGradGradGradGradGradGradGradGradGradGradGradGradGradGradGradGrad

 Leave Link  103 at Wed Dec 28 10:35:36 2022, MaxMem=  7516192768 cpu:               0.8 elap:               0.0
 (Enter /public/home/jackie_lijiaqi/g16/l202.exe)
                          Input orientation:                          
 ---------------------------------------------------------------------
 Center     Atomic      Atomic             Coordinates (Angstroms)
 Number     Number       Type             X           Y           Z
 ---------------------------------------------------------------------
      1          6           0        1.848772    0.118089   -0.000074
      2          6           0        0.611058   -0.398588   -0.000138
      3          6           0       -0.611036    0.398584    0.000076
      4          6           0       -1.848768   -0.118058    0.000161
      5          1           0        2.014759    1.193547    0.000096
      6          1           0        2.735670   -0.509074   -0.000082
      7          1           0        0.478188   -1.480865   -0.000231
      8          1           0       -0.478134    1.480858    0.000056
      9          1           0       -2.014781   -1.193510    0.000076
     10          1           0       -2.735632    0.509150    0.000207
 ---------------------------------------------------------------------
                    Distance matrix (angstroms):
                    1          2          3          4          5
     1  C    0.000000
     2  C    1.341227   0.000000
     3  C    2.475748   1.459107   0.000000
     4  C    3.705072   2.475770   1.341230   0.000000
     5  H    1.088192   2.122562   2.743495   4.080091   0.000000
     6  H    1.086242   2.127483   3.467605   4.601083   1.848953
     7  H    2.105980   1.090403   2.172265   2.696658   3.084401
     8  H    2.696596   2.172247   1.090404   2.105984   2.509396
     9  H    4.080114   2.743525   2.122561   1.088190   4.683507
    10  H    4.601053   3.467610   2.127472   1.086241   4.799439
                    6          7          8          9         10
     6  H    0.000000
     7  H    2.457764   0.000000
     8  H    3.779996   3.112291   0.000000
     9  H    4.799504   2.509476   3.084401   0.000000
    10  H    5.565243   3.780053   2.457746   1.848967   0.000000
 Stoichiometry    C4H6
 Framework group  C1[X(C4H6)]
 Deg. of freedom    24
 Full point group                 C1      NOp   1
 RotChk:  IX=0 Diff= 3.89D-04
 Largest Abelian subgroup         C1      NOp   1
 Largest concise Abelian subgroup C1      NOp   1
                         Standard orientation:                         
 ---------------------------------------------------------------------
 Center     Atomic      Atomic             Coordinates (Angstroms)
 Number     Number       Type             X           Y           Z
 ---------------------------------------------------------------------
      1          6           0       -1.849347   -0.108571   -0.000083
      2          6           0       -0.608992    0.401734   -0.000148
      3          6           0        0.608985   -0.401712    0.000067
      4          6           0        1.849358    0.108558    0.000152
      5          1           0       -2.020863   -1.183161    0.000087
      6          1           0       -2.733008    0.523144   -0.000091
      7          1           0       -0.470559    1.483313   -0.000241
      8          1           0        0.470520   -1.483289    0.000047
      9          1           0        2.020900    1.183142    0.000067
     10          1           0        2.732985   -0.523203    0.000198
 ---------------------------------------------------------------------
 Rotational constants (GHZ):          42.2505838           4.4053442           3.9893830
 Leave Link  202 at Wed Dec 28 10:35:36 2022, MaxMem=  7516192768 cpu:               0.1 elap:               0.0
 (Enter /public/home/jackie_lijiaqi/g16/l301.exe)
 Standard basis: 6-31G(d) (6D, 7F)
 Ernie: Thresh=  0.10000D-02 Tol=  0.10000D-05 Strict=F.
 There are    72 symmetry adapted cartesian basis functions of A   symmetry.
 There are    72 symmetry adapted basis functions of A   symmetry.
    72 basis functions,   136 primitive gaussians,    72 cartesian basis functions
    15 alpha electrons       15 beta electrons
       nuclear repulsion energy       103.4987006441 Hartrees.
 IExCor=  402 DFT=T Ex+Corr=B3LYP ExCW=0 ScaHFX=  0.200000
 ScaDFX=  0.800000  0.720000  1.000000  0.810000 ScalE2=  1.000000  1.000000
 IRadAn=      5 IRanWt=     -1 IRanGd=            0 ICorTp=0 IEmpDi=141
 NAtoms=   10 NActive=   10 NUniq=   10 SFac= 1.00D+00 NAtFMM=   60 NAOKFM=F Big=F
 Integral buffers will be    131072 words long.
 Raffenetti 2 integral format.
 Two-electron integral symmetry is turned on.
 R6Disp:  Grimme-D3(BJ) Dispersion energy=       -0.0107884768 Hartrees.
 Nuclear repulsion after empirical dispersion term =      103.4879121673 Hartrees.
 Leave Link  301 at Wed Dec 28 10:35:36 2022, MaxMem=  7516192768 cpu:               0.7 elap:               0.0
 (Enter /public/home/jackie_lijiaqi/g16/l302.exe)
 NPDir=0 NMtPBC=     1 NCelOv=     1 NCel=       1 NClECP=     1 NCelD=      1
         NCelK=      1 NCelE2=     1 NClLst=     1 CellRange=     0.0.
 One-electron integrals computed using PRISM.
 One-electron integral symmetry used in STVInt
 NBasis=    72 RedAO= T EigKep=  3.63D-03  NBF=    72
 NBsUse=    72 1.00D-06 EigRej= -1.00D+00 NBFU=    72
 Precomputing XC quadrature grid using
 IXCGrd= 4 IRadAn=           5 IRanWt=          -1 IRanGd=           0 AccXCQ= 0.00D+00.
 Generated NRdTot=       0 NPtTot=           0 NUsed=           0 NTot=          32
 NSgBfM=    72    72    72    72    72 MxSgAt=    10 MxSgA2=    10.
 Leave Link  302 at Wed Dec 28 10:35:36 2022, MaxMem=  7516192768 cpu:               2.1 elap:               0.1
 (Enter /public/home/jackie_lijiaqi/g16/l303.exe)
 DipDrv:  MaxL=1.
 Leave Link  303 at Wed Dec 28 10:35:36 2022, MaxMem=  7516192768 cpu:               0.3 elap:               0.0
 (Enter /public/home/jackie_lijiaqi/g16/l401.exe)
 Initial guess from the checkpoint file:  "/public/home/jackie_lijiaqi/g16/scratch/Gau-117105.chk"
 B after Tr=     0.000000   -0.000000   -0.000000
         Rot=    1.000000    0.000031    0.000025   -0.000281 Ang=   0.03 deg.
 Guess basis will be translated and rotated to current coordinates.
 JPrj=2 DoOrth=T DoCkMO=T.
 Generating alternative initial guess.
 ExpMin= 1.61D-01 ExpMax= 3.05D+03 ExpMxC= 4.57D+02 IAcc=3 IRadAn=         5 AccDes= 0.00D+00
 Harris functional with IExCor=  402 and IRadAn=       5 diagonalized for initial guess.
 HarFok:  IExCor=  402 AccDes= 0.00D+00 IRadAn=         5 IDoV= 1 UseB2=F ITyADJ=14
 ICtDFT=  3500011 ScaDFX=  1.000000  1.000000  1.000000  1.000000
 FoFCou: FMM=F IPFlag=           0 FMFlag=      100000 FMFlg1=           0
         NFxFlg=           0 DoJE=T BraDBF=F KetDBF=T FulRan=T
         wScrn=  0.000000 ICntrl=       500 IOpCl=  0 I1Cent=   200000004 NGrid=           0
         NMat0=    1 NMatS0=      1 NMatT0=    0 NMatD0=    1 NMtDS0=    0 NMtDT0=    0
 Petite list used in FoFCou.
 Harris En= -156.047016871440    
 Leave Link  401 at Wed Dec 28 10:35:36 2022, MaxMem=  7516192768 cpu:               4.8 elap:               0.2
 (Enter /public/home/jackie_lijiaqi/g16/l502.exe)
 Keep R1 ints in memory in canonical form, NReq=28585766.
 FoFCou: FMM=F IPFlag=           0 FMFlag=           0 FMFlg1=           0
         NFxFlg=           0 DoJE=F BraDBF=F KetDBF=F FulRan=T
         wScrn=  0.000000 ICntrl=       600 IOpCl=  0 I1Cent=           0 NGrid=           0
         NMat0=    1 NMatS0=   2628 NMatT0=    0 NMatD0=    1 NMtDS0=    0 NMtDT0=    0
 Symmetry not used in FoFCou.
 Two-electron integral symmetry not used.
 Closed shell SCF:
 Using DIIS extrapolation, IDIIS=  1040.
 NGot=  7516192768 LenX=  7512724660 LenY=  7512719035
 Requested convergence on RMS density matrix=1.00D-08 within 128 cycles.
 Requested convergence on MAX density matrix=1.00D-06.
 Requested convergence on             energy=1.00D-06.
 No special actions if energy rises.
 Integral accuracy reduced to 1.0D-05 until final iterations.

 Cycle   1  Pass 0  IDiag  1:
 E= -156.002735519417    
 DIIS: error= 1.43D-03 at cycle   1 NSaved=   1.
 NSaved= 1 IEnMin= 1 EnMin= -156.002735519417     IErMin= 1 ErrMin= 1.43D-03
 ErrMax= 1.43D-03  0.00D+00 EMaxC= 1.00D-01 BMatC= 1.43D-04 BMatP= 1.43D-04
 IDIUse=3 WtCom= 9.86D-01 WtEn= 1.43D-02
 Coeff-Com:  0.100D+01
 Coeff-En:   0.100D+01
 Coeff:      0.100D+01
 Gap=     2.519 Goal=   None    Shift=    0.000
 GapD=    2.519 DampG=2.000 DampE=1.000 DampFc=2.0000 IDamp=-1.
 RMSDP=3.22D-04 MaxDP=3.09D-03              OVMax= 4.38D-03

 Cycle   2  Pass 0  IDiag  1:
 E= -156.002866483704     Delta-E=       -0.000130964287 Rises=F Damp=F
 DIIS: error= 1.08D-03 at cycle   2 NSaved=   2.
 NSaved= 2 IEnMin= 2 EnMin= -156.002866483704     IErMin= 2 ErrMin= 1.08D-03
 ErrMax= 1.08D-03  0.00D+00 EMaxC= 1.00D-01 BMatC= 5.30D-05 BMatP= 1.43D-04
 IDIUse=3 WtCom= 9.89D-01 WtEn= 1.08D-02
 Coeff-Com:  0.352D+00 0.648D+00
 Coeff-En:   0.000D+00 0.100D+01
 Coeff:      0.348D+00 0.652D+00
 Gap=     0.206 Goal=   None    Shift=    0.000
 RMSDP=1.36D-04 MaxDP=1.65D-03 DE=-1.31D-04 OVMax= 2.09D-03

 Cycle   3  Pass 0  IDiag  1:
 E= -156.002919596290     Delta-E=       -0.000053112587 Rises=F Damp=F
 DIIS: error= 2.67D-04 at cycle   3 NSaved=   3.
 NSaved= 3 IEnMin= 3 EnMin= -156.002919596290     IErMin= 3 ErrMin= 2.67D-04
 ErrMax= 2.67D-04  0.00D+00 EMaxC= 1.00D-01 BMatC= 4.68D-06 BMatP= 5.30D-05
 IDIUse=3 WtCom= 9.97D-01 WtEn= 2.67D-03
 Coeff-Com:  0.527D-02 0.228D+00 0.767D+00
 Coeff-En:   0.000D+00 0.000D+00 0.100D+01
 Coeff:      0.526D-02 0.227D+00 0.767D+00
 Gap=     0.206 Goal=   None    Shift=    0.000
 RMSDP=3.13D-05 MaxDP=4.43D-04 DE=-5.31D-05 OVMax= 5.56D-04

 Cycle   4  Pass 0  IDiag  1:
 E= -156.002924613883     Delta-E=       -0.000005017593 Rises=F Damp=F
 DIIS: error= 2.53D-05 at cycle   4 NSaved=   4.
 NSaved= 4 IEnMin= 4 EnMin= -156.002924613883     IErMin= 4 ErrMin= 2.53D-05
 ErrMax= 2.53D-05  0.00D+00 EMaxC= 1.00D-01 BMatC= 4.56D-08 BMatP= 4.68D-06
 IDIUse=1 WtCom= 1.00D+00 WtEn= 0.00D+00
 Coeff-Com: -0.350D-02 0.511D-01 0.202D+00 0.751D+00
 Coeff:     -0.350D-02 0.511D-01 0.202D+00 0.751D+00
 Gap=     0.206 Goal=   None    Shift=    0.000
 RMSDP=4.00D-06 MaxDP=7.62D-05 DE=-5.02D-06 OVMax= 1.62D-04

 Initial convergence to 1.0D-05 achieved.  Increase integral accuracy.
 Cycle   5  Pass 1  IDiag  1:
 E= -156.002919475438     Delta-E=        0.000005138445 Rises=F Damp=F
 DIIS: error= 2.50D-05 at cycle   1 NSaved=   1.
 NSaved= 1 IEnMin= 1 EnMin= -156.002919475438     IErMin= 1 ErrMin= 2.50D-05
 ErrMax= 2.50D-05  0.00D+00 EMaxC= 1.00D-01 BMatC= 4.01D-08 BMatP= 4.01D-08
 IDIUse=1 WtCom= 1.00D+00 WtEn= 0.00D+00
 Coeff-Com:  0.100D+01
 Coeff:      0.100D+01
 Gap=     0.206 Goal=   None    Shift=    0.000
 RMSDP=4.00D-06 MaxDP=7.62D-05 DE= 5.14D-06 OVMax= 2.42D-04

 Cycle   6  Pass 1  IDiag  1:
 E= -156.002919368544     Delta-E=        0.000000106894 Rises=F Damp=F
 DIIS: error= 4.84D-05 at cycle   2 NSaved=   2.
 NSaved= 2 IEnMin= 1 EnMin= -156.002919475438     IErMin= 1 ErrMin= 2.50D-05
 ErrMax= 4.84D-05  0.00D+00 EMaxC= 1.00D-01 BMatC= 1.43D-07 BMatP= 4.01D-08
 IDIUse=1 WtCom= 1.00D+00 WtEn= 0.00D+00
 Coeff-Com:  0.654D+00 0.346D+00
 Coeff:      0.654D+00 0.346D+00
 Gap=     0.206 Goal=   None    Shift=    0.000
 RMSDP=4.48D-06 MaxDP=7.21D-05 DE= 1.07D-07 OVMax= 1.61D-04

 Cycle   7  Pass 1  IDiag  1:
 E= -156.002919517319     Delta-E=       -0.000000148775 Rises=F Damp=F
 DIIS: error= 5.81D-07 at cycle   3 NSaved=   3.
 NSaved= 3 IEnMin= 3 EnMin= -156.002919517319     IErMin= 3 ErrMin= 5.81D-07
 ErrMax= 5.81D-07  0.00D+00 EMaxC= 1.00D-01 BMatC= 2.00D-11 BMatP= 4.01D-08
 IDIUse=1 WtCom= 1.00D+00 WtEn= 0.00D+00
 Coeff-Com:  0.181D+00 0.975D-01 0.721D+00
 Coeff:      0.181D+00 0.975D-01 0.721D+00
 Gap=     0.206 Goal=   None    Shift=    0.000
 RMSDP=8.60D-08 MaxDP=1.26D-06 DE=-1.49D-07 OVMax= 1.51D-06

 Cycle   8  Pass 1  IDiag  1:
 E= -156.002919517336     Delta-E=       -0.000000000017 Rises=F Damp=F
 DIIS: error= 2.60D-07 at cycle   4 NSaved=   4.
 NSaved= 4 IEnMin= 4 EnMin= -156.002919517336     IErMin= 4 ErrMin= 2.60D-07
 ErrMax= 2.60D-07  0.00D+00 EMaxC= 1.00D-01 BMatC= 3.61D-12 BMatP= 2.00D-11
 IDIUse=1 WtCom= 1.00D+00 WtEn= 0.00D+00
 Coeff-Com: -0.162D-02 0.472D-03 0.292D+00 0.709D+00
 Coeff:     -0.162D-02 0.472D-03 0.292D+00 0.709D+00
 Gap=     0.206 Goal=   None    Shift=    0.000
 RMSDP=3.26D-08 MaxDP=4.29D-07 DE=-1.69D-11 OVMax= 6.86D-07

 Cycle   9  Pass 1  IDiag  1:
 E= -156.002919517340     Delta-E=       -0.000000000004 Rises=F Damp=F
 DIIS: error= 5.42D-08 at cycle   5 NSaved=   5.
 NSaved= 5 IEnMin= 5 EnMin= -156.002919517340     IErMin= 5 ErrMin= 5.42D-08
 ErrMax= 5.42D-08  0.00D+00 EMaxC= 1.00D-01 BMatC= 1.77D-13 BMatP= 3.61D-12
 IDIUse=1 WtCom= 1.00D+00 WtEn= 0.00D+00
 Coeff-Com: -0.436D-02-0.158D-02 0.122D+00 0.338D+00 0.546D+00
 Coeff:     -0.436D-02-0.158D-02 0.122D+00 0.338D+00 0.546D+00
 Gap=     0.206 Goal=   None    Shift=    0.000
 RMSDP=8.38D-09 MaxDP=1.62D-07 DE=-3.75D-12 OVMax= 4.38D-07

 SCF Done:  E(RB3LYP) =  -156.002919517     A.U. after    9 cycles
            NFock=  9  Conv=0.84D-08     -V/T= 2.0104
 KE= 1.543951484001D+02 PE=-5.674219270850D+02 EE= 1.535359470003D+02
 Leave Link  502 at Wed Dec 28 10:35:37 2022, MaxMem=  7516192768 cpu:              16.0 elap:               0.6
 (Enter /public/home/jackie_lijiaqi/g16/l701.exe)
 ... and contract with generalized density number  0.
 Compute integral first derivatives.
 R6Disp: Adding Grimme-D3(BJ) dispersion energy 1st derivatives to the gradient.
 Leave Link  701 at Wed Dec 28 10:35:37 2022, MaxMem=  7516192768 cpu:               2.1 elap:               0.1
 (Enter /public/home/jackie_lijiaqi/g16/l702.exe)
 L702 exits ... SP integral derivatives will be done elsewhere.
 Leave Link  702 at Wed Dec 28 10:35:37 2022, MaxMem=  7516192768 cpu:               0.2 elap:               0.0
 (Enter /public/home/jackie_lijiaqi/g16/l703.exe)
 Integral derivatives from FoFJK, PRISM(SPDF).
 Compute integral first derivatives, UseDBF=F ICtDFT=           0.
 Calling FoFJK, ICntrl=      2127 FMM=F ISym2X=0 I1Cent= 0 IOpClX= 0 NMat=1 NMatS=1 NMatT=0.
 FoFJK:  IHMeth= 1 ICntrl=    2127 DoSepK=F KAlg= 0 I1Cent=           0 FoldK=F
 IRaf=         0 NMat=       1 IRICut=       1 DoRegI=T DoRafI=F ISym2E= 0 IDoP0=0 IntGTp=1.
 FoFCou: FMM=F IPFlag=           0 FMFlag=      100000 FMFlg1=         800
         NFxFlg=           0 DoJE=F BraDBF=F KetDBF=F FulRan=T
         wScrn=  0.000000 ICntrl=      2127 IOpCl=  0 I1Cent=           0 NGrid=           0
         NMat0=    1 NMatS0=      1 NMatT0=    0 NMatD0=    1 NMtDS0=    0 NMtDT0=    0
 Symmetry not used in FoFCou.
 Leave Link  703 at Wed Dec 28 10:35:37 2022, MaxMem=  7516192768 cpu:               6.9 elap:               0.3
 (Enter /public/home/jackie_lijiaqi/g16/l716.exe)
 Dipole        =-9.85248414D-06 1.87236206D-06-2.36584384D-06
 ***** Axes restored to original set *****
 -------------------------------------------------------------------
 Center     Atomic                   Forces (Hartrees/Bohr)
 Number     Number              X              Y              Z
 -------------------------------------------------------------------
      1        6          -0.000822394   -0.000053458    0.000003839
      2        6          -0.000404353    0.000806818    0.000013064
      3        6           0.000402297   -0.000806759   -0.000013647
      4        6           0.000829464    0.000056312   -0.000006338
      5        1          -0.000231074   -0.000216509   -0.000001413
      6        1          -0.000649675   -0.000099250   -0.000004783
      7        1           0.000259185    0.000099110   -0.000001755
      8        1          -0.000260794   -0.000099583    0.000004622
      9        1           0.000229336    0.000216007    0.000002451
     10        1           0.000648007    0.000097312    0.000003961
 -------------------------------------------------------------------
 Cartesian Forces:  Max     0.000829464 RMS     0.000374779
 Leave Link  716 at Wed Dec 28 10:35:37 2022, MaxMem=  7516192768 cpu:               0.2 elap:               0.0
 (Enter /public/home/jackie_lijiaqi/g16/l103.exe)

 GradGradGradGradGradGradGradGradGradGradGradGradGradGradGradGradGradGrad
 Berny optimization.
 Using GEDIIS/GDIIS optimizer.
 FormGI is forming the generalized inverse of G from B-inverse, IUseBI=4.
 GSVD:  received Info=                   1 from GESDD.
 Internal  Forces:  Max     0.001841197 RMS     0.000587179
 Search for a local minimum.
 Step number   2 out of a maximum of   43
 All quantities printed in internal units (Hartrees-Bohrs-Radians)
 RMS Force = .58718D-03 SwitMx=.10000D-02 MixMth= 2
 Mixed Optimization -- En-DIIS/RFO-DIIS
 Update second derivatives using D2CorX and points    1    2
 DE= -7.44D-04 DEPred=-8.36D-04 R= 8.90D-01
 TightC=F SS=  1.41D+00  RLast= 6.32D-02 DXNew= 5.0454D-01 1.8956D-01
 Trust test= 8.90D-01 RLast= 6.32D-02 DXMaxT set to 3.00D-01
 ITU=  1  0
 Use linear search instead of GDIIS.
     Eigenvalues ---    0.01469   0.02277   0.02277   0.03034   0.03034
     Eigenvalues ---    0.03034   0.03034   0.15771   0.16000   0.16000
     Eigenvalues ---    0.16000   0.16000   0.16030   0.22000   0.22166
     Eigenvalues ---    0.35445   0.35687   0.36082   0.36234   0.36428
     Eigenvalues ---    0.36493   0.40353   0.59855   0.63924
 RFO step:  Lambda=-1.15545690D-05 EMin= 1.46872379D-02
 Quartic linear search produced a step of -0.08898.
 Iteration  1 RMS(Cart)=  0.00304463 RMS(Int)=  0.00000150
 Iteration  2 RMS(Cart)=  0.00000143 RMS(Int)=  0.00000008
 Iteration  3 RMS(Cart)=  0.00000000 RMS(Int)=  0.00000008
 ITry= 1 IFail=0 DXMaxC= 8.73D-03 DCOld= 1.00D+10 DXMaxT= 3.00D-01 DXLimC= 3.00D+00 Rises=F
 Variable       Old X    -DE/DX   Delta X   Delta X   Delta X     New X
                                 (Linear)    (Quad)   (Total)
    R1        2.53455  -0.00171  -0.00213  -0.00035  -0.00248   2.53207
    R2        2.05638  -0.00025  -0.00171   0.00116  -0.00055   2.05584
    R3        2.05270  -0.00047  -0.00165   0.00054  -0.00111   2.05159
    R4        2.75731  -0.00184  -0.00206  -0.00218  -0.00424   2.75307
    R5        2.06056  -0.00013  -0.00132   0.00105  -0.00027   2.06029
    R6        2.53456  -0.00172  -0.00214  -0.00035  -0.00249   2.53207
    R7        2.06056  -0.00013  -0.00132   0.00105  -0.00027   2.06029
    R8        2.05638  -0.00025  -0.00171   0.00116  -0.00055   2.05584
    R9        2.05270  -0.00047  -0.00165   0.00054  -0.00111   2.05159
    A1        2.11938   0.00004   0.00014   0.00011   0.00025   2.11963
    A2        2.13064  -0.00049   0.00007  -0.00287  -0.00279   2.12784
    A3        2.03317   0.00045  -0.00021   0.00275   0.00254   2.03571
    A4        2.16815  -0.00034  -0.00088  -0.00053  -0.00140   2.16675
    A5        2.08841  -0.00008   0.00095  -0.00169  -0.00074   2.08767
    A6        2.02663   0.00042  -0.00007   0.00222   0.00214   2.02877
    A7        2.16818  -0.00035  -0.00087  -0.00055  -0.00142   2.16676
    A8        2.02660   0.00043  -0.00008   0.00224   0.00216   2.02876
    A9        2.08841  -0.00008   0.00095  -0.00169  -0.00074   2.08767
   A10        2.11938   0.00004   0.00014   0.00012   0.00026   2.11963
   A11        2.13061  -0.00049   0.00007  -0.00285  -0.00278   2.12783
   A12        2.03319   0.00044  -0.00020   0.00273   0.00252   2.03572
    D1       -0.00006   0.00000   0.00004   0.00002   0.00006   0.00000
    D2       -3.14151  -0.00000  -0.00001  -0.00012  -0.00012   3.14155
    D3        3.14142   0.00001   0.00005   0.00017   0.00022  -3.14154
    D4       -0.00003   0.00000   0.00000   0.00004   0.00004   0.00001
    D5       -3.14146  -0.00000  -0.00001  -0.00005  -0.00006  -3.14152
    D6        0.00025  -0.00000  -0.00002  -0.00020  -0.00022   0.00003
    D7       -0.00000   0.00000   0.00004   0.00008   0.00011   0.00011
    D8       -3.14148  -0.00000   0.00002  -0.00007  -0.00004  -3.14152
    D9        0.00000   0.00000  -0.00003   0.00000  -0.00002  -0.00002
   D10       -3.14147  -0.00001  -0.00008  -0.00013  -0.00021   3.14151
   D11        3.14148   0.00000  -0.00001   0.00015   0.00014  -3.14157
   D12        0.00000  -0.00000  -0.00007   0.00002  -0.00004  -0.00004
         Item               Value     Threshold  Converged?
 Maximum Force            0.001841     0.000450     NO 
 RMS     Force            0.000587     0.000300     NO 
 Maximum Displacement     0.008731     0.001800     NO 
 RMS     Displacement     0.003045     0.001200     NO 
 Predicted change in Energy=-1.266730D-05
 Lowest energy point so far.  Saving SCF results.
 GradGradGradGradGradGradGradGradGradGradGradGradGradGradGradGradGradGrad

 Leave Link  103 at Wed Dec 28 10:35:37 2022, MaxMem=  7516192768 cpu:               2.4 elap:               0.1
 (Enter /public/home/jackie_lijiaqi/g16/l202.exe)
                          Input orientation:                          
 ---------------------------------------------------------------------
 Center     Atomic      Atomic             Coordinates (Angstroms)
 Number     Number       Type             X           Y           Z
 ---------------------------------------------------------------------
      1          6           0        1.845986    0.118516   -0.000032
      2          6           0        0.609811   -0.398436   -0.000056
      3          6           0       -0.609791    0.398449    0.000034
      4          6           0       -1.845972   -0.118487    0.000091
      5          1           0        2.011520    1.193751    0.000063
      6          1           0        2.731050   -0.510222   -0.000149
      7          1           0        0.478444   -1.480752   -0.000189
      8          1           0       -0.478411    1.480764    0.000098
      9          1           0       -2.011519   -1.193720    0.000053
     10          1           0       -2.731022    0.510271    0.000235
 ---------------------------------------------------------------------
                    Distance matrix (angstroms):
                    1          2          3          4          5
     1  C    0.000000
     2  C    1.339913   0.000000
     3  C    2.471679   1.456864   0.000000
     4  C    3.699557   2.471688   1.339914   0.000000
     5  H    1.087903   2.121285   2.739302   4.074582   0.000000
     6  H    1.085657   2.124182   3.462210   4.593755   1.849661
     7  H    2.104241   1.090259   2.171556   2.694194   3.082741
     8  H    2.694167   2.171548   1.090260   2.104241   2.506418
     9  H    4.074592   2.739314   2.121284   1.087902   4.678125
    10  H    4.593742   3.462212   2.124177   1.085656   4.791539
                    6          7          8          9         10
     6  H    0.000000
     7  H    2.452786   0.000000
     8  H    3.776859   3.112258   0.000000
     9  H    4.791568   2.506452   3.082740   0.000000
    10  H    5.556585   3.776883   2.452777   1.849667   0.000000
 Stoichiometry    C4H6
 Framework group  C1[X(C4H6)]
 Deg. of freedom    24
 Full point group                 C1      NOp   1
 RotChk:  IX=0 Diff= 1.09D-04
 Largest Abelian subgroup         C1      NOp   1
 Largest concise Abelian subgroup C1      NOp   1
                         Standard orientation:                         
 ---------------------------------------------------------------------
 Center     Atomic      Atomic             Coordinates (Angstroms)
 Number     Number       Type             X           Y           Z
 ---------------------------------------------------------------------
      1          6           0       -1.846570   -0.108867   -0.000043
      2          6           0       -0.607714    0.401625   -0.000067
      3          6           0        0.607711   -0.401616    0.000023
      4          6           0        1.846575    0.108861    0.000080
      5          1           0       -2.017715   -1.183224    0.000052
      6          1           0       -2.728340    0.524482   -0.000160
      7          1           0       -0.470700    1.483241   -0.000200
      8          1           0        0.470684   -1.483230    0.000087
      9          1           0        2.017731    1.183215    0.000042
     10          1           0        2.728330   -0.524508    0.000224
 ---------------------------------------------------------------------
 Rotational constants (GHZ):          42.2420962           4.4192388           4.0006980
 Leave Link  202 at Wed Dec 28 10:35:38 2022, MaxMem=  7516192768 cpu:               0.2 elap:               0.0
 (Enter /public/home/jackie_lijiaqi/g16/l301.exe)
 Standard basis: 6-31G(d) (6D, 7F)
 Ernie: Thresh=  0.10000D-02 Tol=  0.10000D-05 Strict=F.
 There are    72 symmetry adapted cartesian basis functions of A   symmetry.
 There are    72 symmetry adapted basis functions of A   symmetry.
    72 basis functions,   136 primitive gaussians,    72 cartesian basis functions
    15 alpha electrons       15 beta electrons
       nuclear repulsion energy       103.6101453610 Hartrees.
 IExCor=  402 DFT=T Ex+Corr=B3LYP ExCW=0 ScaHFX=  0.200000
 ScaDFX=  0.800000  0.720000  1.000000  0.810000 ScalE2=  1.000000  1.000000
 IRadAn=      5 IRanWt=     -1 IRanGd=            0 ICorTp=0 IEmpDi=141
 NAtoms=   10 NActive=   10 NUniq=   10 SFac= 1.00D+00 NAtFMM=   60 NAOKFM=F Big=F
 Integral buffers will be    131072 words long.
 Raffenetti 2 integral format.
 Two-electron integral symmetry is turned on.
 R6Disp:  Grimme-D3(BJ) Dispersion energy=       -0.0107983199 Hartrees.
 Nuclear repulsion after empirical dispersion term =      103.5993470411 Hartrees.
 Leave Link  301 at Wed Dec 28 10:35:38 2022, MaxMem=  7516192768 cpu:               1.0 elap:               0.1
 (Enter /public/home/jackie_lijiaqi/g16/l302.exe)
 NPDir=0 NMtPBC=     1 NCelOv=     1 NCel=       1 NClECP=     1 NCelD=      1
         NCelK=      1 NCelE2=     1 NClLst=     1 CellRange=     0.0.
 One-electron integrals computed using PRISM.
 One-electron integral symmetry used in STVInt
 NBasis=    72 RedAO= T EigKep=  3.60D-03  NBF=    72
 NBsUse=    72 1.00D-06 EigRej= -1.00D+00 NBFU=    72
 Precomputing XC quadrature grid using
 IXCGrd= 4 IRadAn=           5 IRanWt=          -1 IRanGd=           0 AccXCQ= 0.00D+00.
 Generated NRdTot=       0 NPtTot=           0 NUsed=           0 NTot=          32
 NSgBfM=    72    72    72    72    72 MxSgAt=    10 MxSgA2=    10.
 Leave Link  302 at Wed Dec 28 10:35:38 2022, MaxMem=  7516192768 cpu:               2.7 elap:               0.1
 (Enter /public/home/jackie_lijiaqi/g16/l303.exe)
 DipDrv:  MaxL=1.
 Leave Link  303 at Wed Dec 28 10:35:38 2022, MaxMem=  7516192768 cpu:               0.3 elap:               0.0
 (Enter /public/home/jackie_lijiaqi/g16/l401.exe)
 Initial guess from the checkpoint file:  "/public/home/jackie_lijiaqi/g16/scratch/Gau-117105.chk"
 B after Tr=    -0.000000   -0.000000    0.000000
         Rot=    1.000000   -0.000010   -0.000010   -0.000007 Ang=  -0.00 deg.
 Guess basis will be translated and rotated to current coordinates.
 JPrj=2 DoOrth=T DoCkMO=T.
 Leave Link  401 at Wed Dec 28 10:35:38 2022, MaxMem=  7516192768 cpu:               1.2 elap:               0.1
 (Enter /public/home/jackie_lijiaqi/g16/l502.exe)
 Keep R1 ints in memory in canonical form, NReq=28585766.
 FoFCou: FMM=F IPFlag=           0 FMFlag=           0 FMFlg1=           0
         NFxFlg=           0 DoJE=F BraDBF=F KetDBF=F FulRan=T
         wScrn=  0.000000 ICntrl=       600 IOpCl=  0 I1Cent=           0 NGrid=           0
         NMat0=    1 NMatS0=   2628 NMatT0=    0 NMatD0=    1 NMtDS0=    0 NMtDT0=    0
 Symmetry not used in FoFCou.
 Two-electron integral symmetry not used.
 Closed shell SCF:
 Using DIIS extrapolation, IDIIS=  1040.
 NGot=  7516192768 LenX=  7512724660 LenY=  7512719035
 Requested convergence on RMS density matrix=1.00D-08 within 128 cycles.
 Requested convergence on MAX density matrix=1.00D-06.
 Requested convergence on             energy=1.00D-06.
 No special actions if energy rises.

 Cycle   1  Pass 1  IDiag  1:
 E= -156.002930602714    
 DIIS: error= 1.64D-04 at cycle   1 NSaved=   1.
 NSaved= 1 IEnMin= 1 EnMin= -156.002930602714     IErMin= 1 ErrMin= 1.64D-04
 ErrMax= 1.64D-04  0.00D+00 EMaxC= 1.00D-01 BMatC= 1.92D-06 BMatP= 1.92D-06
 IDIUse=3 WtCom= 9.98D-01 WtEn= 1.64D-03
 Coeff-Com:  0.100D+01
 Coeff-En:   0.100D+01
 Coeff:      0.100D+01
 Gap=     2.559 Goal=   None    Shift=    0.000
 RMSDP=3.82D-05 MaxDP=2.97D-04              OVMax= 5.43D-04

 Cycle   2  Pass 1  IDiag  1:
 E= -156.002932633365     Delta-E=       -0.000002030651 Rises=F Damp=F
 DIIS: error= 8.47D-05 at cycle   2 NSaved=   2.
 NSaved= 2 IEnMin= 2 EnMin= -156.002932633365     IErMin= 2 ErrMin= 8.47D-05
 ErrMax= 8.47D-05  0.00D+00 EMaxC= 1.00D-01 BMatC= 4.67D-07 BMatP= 1.92D-06
 IDIUse=1 WtCom= 1.00D+00 WtEn= 0.00D+00
 Coeff-Com:  0.280D+00 0.720D+00
 Coeff:      0.280D+00 0.720D+00
 Gap=     0.207 Goal=   None    Shift=    0.000
 RMSDP=1.53D-05 MaxDP=1.81D-04 DE=-2.03D-06 OVMax= 3.06D-04

 Cycle   3  Pass 1  IDiag  1:
 E= -156.002932944232     Delta-E=       -0.000000310868 Rises=F Damp=F
 DIIS: error= 5.01D-05 at cycle   3 NSaved=   3.
 NSaved= 3 IEnMin= 3 EnMin= -156.002932944232     IErMin= 3 ErrMin= 5.01D-05
 ErrMax= 5.01D-05  0.00D+00 EMaxC= 1.00D-01 BMatC= 1.65D-07 BMatP= 4.67D-07
 IDIUse=1 WtCom= 1.00D+00 WtEn= 0.00D+00
 Coeff-Com:  0.243D-01 0.371D+00 0.605D+00
 Coeff:      0.243D-01 0.371D+00 0.605D+00
 Gap=     0.207 Goal=   None    Shift=    0.000
 RMSDP=7.57D-06 MaxDP=1.08D-04 DE=-3.11D-07 OVMax= 2.29D-04

 Cycle   4  Pass 1  IDiag  1:
 E= -156.002933095931     Delta-E=       -0.000000151699 Rises=F Damp=F
 DIIS: error= 2.41D-05 at cycle   4 NSaved=   4.
 NSaved= 4 IEnMin= 4 EnMin= -156.002933095931     IErMin= 4 ErrMin= 2.41D-05
 ErrMax= 2.41D-05  0.00D+00 EMaxC= 1.00D-01 BMatC= 3.28D-08 BMatP= 1.65D-07
 IDIUse=1 WtCom= 1.00D+00 WtEn= 0.00D+00
 Coeff-Com: -0.441D-02 0.183D+00 0.394D+00 0.427D+00
 Coeff:     -0.441D-02 0.183D+00 0.394D+00 0.427D+00
 Gap=     0.207 Goal=   None    Shift=    0.000
 RMSDP=2.02D-06 MaxDP=3.41D-05 DE=-1.52D-07 OVMax= 7.20D-05

 Cycle   5  Pass 1  IDiag  1:
 E= -156.002933129396     Delta-E=       -0.000000033466 Rises=F Damp=F
 DIIS: error= 1.54D-06 at cycle   5 NSaved=   5.
 NSaved= 5 IEnMin= 5 EnMin= -156.002933129396     IErMin= 5 ErrMin= 1.54D-06
 ErrMax= 1.54D-06  0.00D+00 EMaxC= 1.00D-01 BMatC= 1.55D-10 BMatP= 3.28D-08
 IDIUse=1 WtCom= 1.00D+00 WtEn= 0.00D+00
 Coeff-Com: -0.285D-02 0.191D-01 0.684D-01 0.871D-01 0.828D+00
 Coeff:     -0.285D-02 0.191D-01 0.684D-01 0.871D-01 0.828D+00
 Gap=     0.207 Goal=   None    Shift=    0.000
 RMSDP=2.65D-07 MaxDP=1.95D-06 DE=-3.35D-08 OVMax= 3.27D-06

 Cycle   6  Pass 1  IDiag  1:
 E= -156.002933129571     Delta-E=       -0.000000000175 Rises=F Damp=F
 DIIS: error= 2.31D-07 at cycle   6 NSaved=   6.
 NSaved= 6 IEnMin= 6 EnMin= -156.002933129571     IErMin= 6 ErrMin= 2.31D-07
 ErrMax= 2.31D-07  0.00D+00 EMaxC= 1.00D-01 BMatC= 2.60D-12 BMatP= 1.55D-10
 IDIUse=1 WtCom= 1.00D+00 WtEn= 0.00D+00
 Coeff-Com: -0.473D-03 0.951D-03 0.825D-02 0.923D-02 0.169D+00 0.813D+00
 Coeff:     -0.473D-03 0.951D-03 0.825D-02 0.923D-02 0.169D+00 0.813D+00
 Gap=     0.207 Goal=   None    Shift=    0.000
 RMSDP=3.50D-08 MaxDP=2.73D-07 DE=-1.75D-10 OVMax= 7.60D-07

 Cycle   7  Pass 1  IDiag  1:
 E= -156.002933129575     Delta-E=       -0.000000000003 Rises=F Damp=F
 DIIS: error= 3.16D-08 at cycle   7 NSaved=   7.
 NSaved= 7 IEnMin= 7 EnMin= -156.002933129575     IErMin= 7 ErrMin= 3.16D-08
 ErrMax= 3.16D-08  0.00D+00 EMaxC= 1.00D-01 BMatC= 5.39D-14 BMatP= 2.60D-12
 IDIUse=1 WtCom= 1.00D+00 WtEn= 0.00D+00
 Coeff-Com: -0.768D-05-0.353D-03-0.546D-03-0.112D-02 0.229D-02 0.127D+00
 Coeff-Com:  0.873D+00
 Coeff:     -0.768D-05-0.353D-03-0.546D-03-0.112D-02 0.229D-02 0.127D+00
 Coeff:      0.873D+00
 Gap=     0.207 Goal=   None    Shift=    0.000
 RMSDP=5.38D-09 MaxDP=6.24D-08 DE=-3.24D-12 OVMax= 1.39D-07

 SCF Done:  E(RB3LYP) =  -156.002933130     A.U. after    7 cycles
            NFock=  7  Conv=0.54D-08     -V/T= 2.0103
 KE= 1.544108778063D+02 PE=-5.676585728923D+02 EE= 1.536454149154D+02
 Leave Link  502 at Wed Dec 28 10:35:38 2022, MaxMem=  7516192768 cpu:              16.4 elap:               0.6
 (Enter /public/home/jackie_lijiaqi/g16/l701.exe)
 ... and contract with generalized density number  0.
 Compute integral first derivatives.
 R6Disp: Adding Grimme-D3(BJ) dispersion energy 1st derivatives to the gradient.
 Leave Link  701 at Wed Dec 28 10:35:39 2022, MaxMem=  7516192768 cpu:               2.2 elap:               0.1
 (Enter /public/home/jackie_lijiaqi/g16/l702.exe)
 L702 exits ... SP integral derivatives will be done elsewhere.
 Leave Link  702 at Wed Dec 28 10:35:39 2022, MaxMem=  7516192768 cpu:               0.2 elap:               0.0
 (Enter /public/home/jackie_lijiaqi/g16/l703.exe)
 Integral derivatives from FoFJK, PRISM(SPDF).
 Compute integral first derivatives, UseDBF=F ICtDFT=           0.
 Calling FoFJK, ICntrl=      2127 FMM=F ISym2X=0 I1Cent= 0 IOpClX= 0 NMat=1 NMatS=1 NMatT=0.
 FoFJK:  IHMeth= 1 ICntrl=    2127 DoSepK=F KAlg= 0 I1Cent=           0 FoldK=F
 IRaf=         0 NMat=       1 IRICut=       1 DoRegI=T DoRafI=F ISym2E= 0 IDoP0=0 IntGTp=1.
 FoFCou: FMM=F IPFlag=           0 FMFlag=      100000 FMFlg1=         800
         NFxFlg=           0 DoJE=F BraDBF=F KetDBF=F FulRan=T
         wScrn=  0.000000 ICntrl=      2127 IOpCl=  0 I1Cent=           0 NGrid=           0
         NMat0=    1 NMatS0=      1 NMatT0=    0 NMatD0=    1 NMtDS0=    0 NMtDT0=    0
 Symmetry not used in FoFCou.
 Leave Link  703 at Wed Dec 28 10:35:39 2022, MaxMem=  7516192768 cpu:               6.9 elap:               0.3
 (Enter /public/home/jackie_lijiaqi/g16/l716.exe)
 Dipole        =-5.46261213D-06 3.62659143D-07 1.83705361D-06
 ***** Axes restored to original set *****
 -------------------------------------------------------------------
 Center     Atomic                   Forces (Hartrees/Bohr)
 Number     Number              X              Y              Z
 -------------------------------------------------------------------
      1        6           0.000291369    0.000120454   -0.000002547
      2        6          -0.000337786    0.000147214   -0.000005304
      3        6           0.000337801   -0.000146823    0.000004148
      4        6          -0.000289201   -0.000119578    0.000002499
      5        1          -0.000070864   -0.000080294    0.000000722
      6        1          -0.000093167   -0.000052518    0.000001736
      7        1           0.000074371    0.000030325    0.000001751
      8        1          -0.000074990   -0.000030481    0.000000097
      9        1           0.000070110    0.000079954   -0.000000511
     10        1           0.000092358    0.000051746   -0.000002589
 -------------------------------------------------------------------
 Cartesian Forces:  Max     0.000337801 RMS     0.000132574
 Leave Link  716 at Wed Dec 28 10:35:39 2022, MaxMem=  7516192768 cpu:               0.3 elap:               0.0
 (Enter /public/home/jackie_lijiaqi/g16/l103.exe)

 GradGradGradGradGradGradGradGradGradGradGradGradGradGradGradGradGradGrad
 Berny optimization.
 Using GEDIIS/GDIIS optimizer.
 FormGI is forming the generalized inverse of G from B-inverse, IUseBI=4.
 Internal  Forces:  Max     0.000204166 RMS     0.000074904
 Search for a local minimum.
 Step number   3 out of a maximum of   43
 All quantities printed in internal units (Hartrees-Bohrs-Radians)
 RMS Force = .74904D-04 SwitMx=.10000D-02 MixMth= 2
 Mixed Optimization -- En-DIIS/RFO-DIIS
 Swapping is turned off.
 Update second derivatives using D2CorX and points    1    2    3
 DE= -1.36D-05 DEPred=-1.27D-05 R= 1.07D+00
 TightC=F SS=  1.41D+00  RLast= 8.75D-03 DXNew= 5.0454D-01 2.6245D-02
 Trust test= 1.07D+00 RLast= 8.75D-03 DXMaxT set to 3.00D-01
 ITU=  1  1  0
     Eigenvalues ---    0.01469   0.02276   0.02276   0.03034   0.03034
     Eigenvalues ---    0.03034   0.03035   0.14113   0.15998   0.16000
     Eigenvalues ---    0.16000   0.16000   0.16023   0.22000   0.22939
     Eigenvalues ---    0.35323   0.35687   0.35912   0.36234   0.36428
     Eigenvalues ---    0.36481   0.37981   0.59855   0.68016
 En-DIIS/RFO-DIIS/Sim-DIIS IScMMF=       -3 using points:     3    2
 RFO step:  Lambda=-8.47160589D-07.
 NNeg= 0 NGDIIS= 2 SimSw=  2.50D-03 Rises=F DC= -1.36D-05 SmlDif=  1.00D-05
 NRisDI= 0 DoIntr=F SqrtH=F CThrHd= 10.0 CDAdj=  3.0
 RMS Error=  0.3813514572D-03 NUsed= 2 OKEnD=T EnDIS=F
 InvSVX:  RCond= 1.91D-05 Info=           0 Equed=N FErr=  1.30D-15 BErr=  9.05D-17
 DidBck=F Rises=F RFO-DIIS coefs:    1.14989   -0.14989
 Iteration  1 RMS(Cart)=  0.00051366 RMS(Int)=  0.00000021
 Iteration  2 RMS(Cart)=  0.00000023 RMS(Int)=  0.00000000
 ITry= 1 IFail=0 DXMaxC= 1.34D-03 DCOld= 1.00D+10 DXMaxT= 3.00D-01 DXLimC= 3.00D+00 Rises=F
 Variable       Old X    -DE/DX   Delta X   Delta X   Delta X     New X
                                 (Linear)    (Quad)   (Total)
    R1        2.53207   0.00011  -0.00037   0.00053   0.00016   2.53223
    R2        2.05584  -0.00009  -0.00008  -0.00018  -0.00026   2.05558
    R3        2.05159  -0.00005  -0.00017   0.00002  -0.00014   2.05145
    R4        2.75307  -0.00020  -0.00064  -0.00003  -0.00066   2.75241
    R5        2.06029  -0.00004  -0.00004  -0.00007  -0.00011   2.06018
    R6        2.53207   0.00011  -0.00037   0.00053   0.00016   2.53223
    R7        2.06029  -0.00004  -0.00004  -0.00007  -0.00011   2.06018
    R8        2.05584  -0.00009  -0.00008  -0.00018  -0.00026   2.05558
    R9        2.05159  -0.00005  -0.00017   0.00002  -0.00014   2.05145
    A1        2.11963  -0.00001   0.00004  -0.00012  -0.00008   2.11955
    A2        2.12784  -0.00009  -0.00042  -0.00029  -0.00071   2.12714
    A3        2.03571   0.00011   0.00038   0.00040   0.00079   2.03649
    A4        2.16675   0.00011  -0.00021   0.00070   0.00049   2.16724
    A5        2.08767  -0.00013  -0.00011  -0.00067  -0.00078   2.08689
    A6        2.02877   0.00002   0.00032  -0.00004   0.00029   2.02906
    A7        2.16676   0.00011  -0.00021   0.00070   0.00048   2.16724
    A8        2.02876   0.00002   0.00032  -0.00003   0.00029   2.02905
    A9        2.08767  -0.00013  -0.00011  -0.00067  -0.00078   2.08689
   A10        2.11963  -0.00001   0.00004  -0.00012  -0.00008   2.11955
   A11        2.12783  -0.00009  -0.00042  -0.00028  -0.00070   2.12714
   A12        2.03572   0.00010   0.00038   0.00040   0.00078   2.03650
    D1        0.00000  -0.00000   0.00001  -0.00002  -0.00001  -0.00001
    D2        3.14155   0.00000  -0.00002   0.00007   0.00005  -3.14158
    D3       -3.14154  -0.00000   0.00003  -0.00011  -0.00008   3.14156
    D4        0.00001  -0.00000   0.00001  -0.00002  -0.00002  -0.00001
    D5       -3.14152  -0.00000  -0.00001  -0.00003  -0.00004  -3.14156
    D6        0.00003   0.00000  -0.00003   0.00005   0.00002   0.00005
    D7        0.00011  -0.00000   0.00002  -0.00012  -0.00010   0.00001
    D8       -3.14152  -0.00000  -0.00001  -0.00004  -0.00004  -3.14157
    D9       -0.00002   0.00000  -0.00000   0.00002   0.00002  -0.00000
   D10        3.14151   0.00000  -0.00003   0.00014   0.00010  -3.14157
   D11       -3.14157  -0.00000   0.00002  -0.00007  -0.00004   3.14157
   D12       -0.00004   0.00000  -0.00001   0.00005   0.00004   0.00001
         Item               Value     Threshold  Converged?
 Maximum Force            0.000204     0.000450     YES
 RMS     Force            0.000075     0.000300     YES
 Maximum Displacement     0.001344     0.001800     YES
 RMS     Displacement     0.000514     0.001200     YES
 Predicted change in Energy=-4.235821D-07
 Optimization completed.
    -- Stationary point found.
                           ----------------------------
                           !   Optimized Parameters   !
                           ! (Angstroms and Degrees)  !
 --------------------------                            --------------------------
 ! Name  Definition              Value          Derivative Info.                !
 --------------------------------------------------------------------------------
 ! R1    R(1,2)                  1.3399         -DE/DX =    0.0001              !
 ! R2    R(1,5)                  1.0879         -DE/DX =   -0.0001              !
 ! R3    R(1,6)                  1.0857         -DE/DX =    0.0                 !
 ! R4    R(2,3)                  1.4569         -DE/DX =   -0.0002              !
 ! R5    R(2,7)                  1.0903         -DE/DX =    0.0                 !
 ! R6    R(3,4)                  1.3399         -DE/DX =    0.0001              !
 ! R7    R(3,8)                  1.0903         -DE/DX =    0.0                 !
 ! R8    R(4,9)                  1.0879         -DE/DX =   -0.0001              !
 ! R9    R(4,10)                 1.0857         -DE/DX =    0.0                 !
 ! A1    A(2,1,5)              121.4461         -DE/DX =    0.0                 !
 ! A2    A(2,1,6)              121.9165         -DE/DX =   -0.0001              !
 ! A3    A(5,1,6)              116.6374         -DE/DX =    0.0001              !
 ! A4    A(1,2,3)              124.1454         -DE/DX =    0.0001              !
 ! A5    A(1,2,7)              119.6145         -DE/DX =   -0.0001              !
 ! A6    A(3,2,7)              116.2401         -DE/DX =    0.0                 !
 ! A7    A(2,3,4)              124.1461         -DE/DX =    0.0001              !
 ! A8    A(2,3,8)              116.2394         -DE/DX =    0.0                 !
 ! A9    A(4,3,8)              119.6145         -DE/DX =   -0.0001              !
 ! A10   A(3,4,9)              121.446          -DE/DX =    0.0                 !
 ! A11   A(3,4,10)             121.9159         -DE/DX =   -0.0001              !
 ! A12   A(9,4,10)             116.6381         -DE/DX =    0.0001              !
 ! D1    D(5,1,2,3)              0.0003         -DE/DX =    0.0                 !
 ! D2    D(5,1,2,7)           -180.0022         -DE/DX =    0.0                 !
 ! D3    D(6,1,2,3)            180.0029         -DE/DX =    0.0                 !
 ! D4    D(6,1,2,7)              0.0004         -DE/DX =    0.0                 !
 ! D5    D(1,2,3,4)           -179.9958         -DE/DX =    0.0                 !
 ! D6    D(1,2,3,8)              0.0017         -DE/DX =    0.0                 !
 ! D7    D(7,2,3,4)              0.0065         -DE/DX =    0.0                 !
 ! D8    D(7,2,3,8)           -179.9959         -DE/DX =    0.0                 !
 ! D9    D(2,3,4,9)             -0.0012         -DE/DX =    0.0                 !
 ! D10   D(2,3,4,10)          -180.0048         -DE/DX =    0.0                 !
 ! D11   D(8,3,4,9)            180.0014         -DE/DX =    0.0                 !
 ! D12   D(8,3,4,10)            -0.0022         -DE/DX =    0.0                 !
 --------------------------------------------------------------------------------
 Lowest energy point so far.  Saving SCF results.
 Largest change from initial coordinates is atom    5       0.024 Angstoms.
 GradGradGradGradGradGradGradGradGradGradGradGradGradGradGradGradGradGrad

 Leave Link  103 at Wed Dec 28 10:35:39 2022, MaxMem=  7516192768 cpu:               1.1 elap:               0.1
 (Enter /public/home/jackie_lijiaqi/g16/l202.exe)
                          Input orientation:                          
 ---------------------------------------------------------------------
 Center     Atomic      Atomic             Coordinates (Angstroms)
 Number     Number       Type             X           Y           Z
 ---------------------------------------------------------------------
      1          6           0        1.845986    0.118516   -0.000032
      2          6           0        0.609811   -0.398436   -0.000056
      3          6           0       -0.609791    0.398449    0.000034
      4          6           0       -1.845972   -0.118487    0.000091
      5          1           0        2.011520    1.193751    0.000063
      6          1           0        2.731050   -0.510222   -0.000149
      7          1           0        0.478444   -1.480752   -0.000189
      8          1           0       -0.478411    1.480764    0.000098
      9          1           0       -2.011519   -1.193720    0.000053
     10          1           0       -2.731022    0.510271    0.000235
 ---------------------------------------------------------------------
                    Distance matrix (angstroms):
                    1          2          3          4          5
     1  C    0.000000
     2  C    1.339913   0.000000
     3  C    2.471679   1.456864   0.000000
     4  C    3.699557   2.471688   1.339914   0.000000
     5  H    1.087903   2.121285   2.739302   4.074582   0.000000
     6  H    1.085657   2.124182   3.462210   4.593755   1.849661
     7  H    2.104241   1.090259   2.171556   2.694194   3.082741
     8  H    2.694167   2.171548   1.090260   2.104241   2.506418
     9  H    4.074592   2.739314   2.121284   1.087902   4.678125
    10  H    4.593742   3.462212   2.124177   1.085656   4.791539
                    6          7          8          9         10
     6  H    0.000000
     7  H    2.452786   0.000000
     8  H    3.776859   3.112258   0.000000
     9  H    4.791568   2.506452   3.082740   0.000000
    10  H    5.556585   3.776883   2.452777   1.849667   0.000000
 Stoichiometry    C4H6
 Framework group  C1[X(C4H6)]
 Deg. of freedom    24
 Full point group                 C1      NOp   1
 RotChk:  IX=0 Diff= 6.09D-16
 Largest Abelian subgroup         C1      NOp   1
 Largest concise Abelian subgroup C1      NOp   1
                         Standard orientation:                         
 ---------------------------------------------------------------------
 Center     Atomic      Atomic             Coordinates (Angstroms)
 Number     Number       Type             X           Y           Z
 ---------------------------------------------------------------------
      1          6           0       -1.846570   -0.108867   -0.000043
      2          6           0       -0.607714    0.401625   -0.000067
      3          6           0        0.607711   -0.401616    0.000023
      4          6           0        1.846575    0.108861    0.000080
      5          1           0       -2.017715   -1.183224    0.000052
      6          1           0       -2.728340    0.524482   -0.000160
      7          1           0       -0.470700    1.483241   -0.000200
      8          1           0        0.470684   -1.483230    0.000087
      9          1           0        2.017731    1.183215    0.000042
     10          1           0        2.728330   -0.524508    0.000224
 ---------------------------------------------------------------------
 Rotational constants (GHZ):          42.2420962           4.4192388           4.0006980
 Leave Link  202 at Wed Dec 28 10:35:39 2022, MaxMem=  7516192768 cpu:               0.2 elap:               0.0
 (Enter /public/home/jackie_lijiaqi/g16/l601.exe)
 Copying SCF densities to generalized density rwf, IOpCl= 0 IROHF=0.

 **********************************************************************

            Population analysis using the SCF Density.

 **********************************************************************

 Orbital symmetries:
       Occupied  (A) (A) (A) (A) (A) (A) (A) (A) (A) (A) (A) (A)
                 (A) (A) (A)
       Virtual   (A) (A) (A) (A) (A) (A) (A) (A) (A) (A) (A) (A)
                 (A) (A) (A) (A) (A) (A) (A) (A) (A) (A) (A) (A)
                 (A) (A) (A) (A) (A) (A) (A) (A) (A) (A) (A) (A)
                 (A) (A) (A) (A) (A) (A) (A) (A) (A) (A) (A) (A)
                 (A) (A) (A) (A) (A) (A) (A) (A) (A)
 The electronic state is 1-A.
 Alpha  occ. eigenvalues --  -10.19222 -10.19188 -10.18361 -10.18361  -0.80176
 Alpha  occ. eigenvalues --   -0.72966  -0.60295  -0.55057  -0.46408  -0.45912
 Alpha  occ. eigenvalues --   -0.39136  -0.38487  -0.34447  -0.32000  -0.22900
 Alpha virt. eigenvalues --   -0.02225   0.08548   0.11530   0.12581   0.13092
 Alpha virt. eigenvalues --    0.17524   0.19271   0.21179   0.32564   0.33668
 Alpha virt. eigenvalues --    0.39759   0.47307   0.51634   0.53018   0.57798
 Alpha virt. eigenvalues --    0.60796   0.62679   0.66218   0.67161   0.67172
 Alpha virt. eigenvalues --    0.69368   0.84380   0.85796   0.86401   0.88847
 Alpha virt. eigenvalues --    0.93907   0.94508   0.96251   1.06719   1.11916
 Alpha virt. eigenvalues --    1.13054   1.31907   1.34598   1.35448   1.42900
 Alpha virt. eigenvalues --    1.54111   1.65842   1.76690   1.82427   1.87663
 Alpha virt. eigenvalues --    1.94657   2.05426   2.10172   2.11537   2.16075
 Alpha virt. eigenvalues --    2.31595   2.39963   2.40642   2.47933   2.60006
 Alpha virt. eigenvalues --    2.73634   2.92641   2.98436   4.08738   4.12636
 Alpha virt. eigenvalues --    4.21265   4.44382
          Condensed to atoms (all electrons):
               1          2          3          4          5          6
     1  C    5.069591   0.634880  -0.028126   0.003730   0.368672   0.362766
     2  C    0.634880   4.741024   0.460198  -0.028127  -0.036379  -0.020063
     3  C   -0.028126   0.460198   4.741024   0.634880  -0.010720   0.003905
     4  C    0.003730  -0.028127   0.634880   5.069592   0.000314  -0.000218
     5  H    0.368672  -0.036379  -0.010720   0.000314   0.567101  -0.041964
     6  H    0.362766  -0.020063   0.003905  -0.000218  -0.041964   0.557874
     7  H   -0.051877   0.366164  -0.051646  -0.006421   0.005752  -0.006911
     8  H   -0.006421  -0.051647   0.366164  -0.051877   0.005863  -0.000008
     9  H    0.000314  -0.010720  -0.036379   0.368672   0.000013  -0.000004
    10  H   -0.000218   0.003905  -0.020063   0.362766  -0.000004   0.000003
               7          8          9         10
     1  C   -0.051877  -0.006421   0.000314  -0.000218
     2  C    0.366164  -0.051647  -0.010720   0.003905
     3  C   -0.051646   0.366164  -0.036379  -0.020063
     4  C   -0.006421  -0.051877   0.368672   0.362766
     5  H    0.005752   0.005863   0.000013  -0.000004
     6  H   -0.006911  -0.000008  -0.000004   0.000003
     7  H    0.606985   0.005522   0.005862  -0.000008
     8  H    0.005522   0.606986   0.005752  -0.006912
     9  H    0.005862   0.005752   0.567101  -0.041963
    10  H   -0.000008  -0.006912  -0.041963   0.557873
 Mulliken charges:
               1
     1  C   -0.353312
     2  C   -0.059236
     3  C   -0.059238
     4  C   -0.353312
     5  H    0.141351
     6  H    0.144620
     7  H    0.126578
     8  H    0.126578
     9  H    0.141351
    10  H    0.144620
 Sum of Mulliken charges =  -0.00000
 Mulliken charges with hydrogens summed into heavy atoms:
               1
     1  C   -0.067341
     2  C    0.067342
     3  C    0.067340
     4  C   -0.067341
 Electronic spatial extent (au):  <R**2>=            335.4443
 Charge=             -0.0000 electrons
 Dipole moment (field-independent basis, Debye):
    X=             -0.0000    Y=              0.0000    Z=              0.0000  Tot=              0.0000
 Quadrupole moment (field-independent basis, Debye-Ang):
   XX=            -22.8568   YY=            -22.6202   ZZ=            -27.9310
   XY=              0.0115   XZ=              0.0004   YZ=             -0.0005
 Traceless Quadrupole moment (field-independent basis, Debye-Ang):
   XX=              1.6126   YY=              1.8491   ZZ=             -3.4617
   XY=              0.0115   XZ=              0.0004   YZ=             -0.0005
 Octapole moment (field-independent basis, Debye-Ang**2):
  XXX=             -0.0001  YYY=              0.0000  ZZZ=             -0.0000  XYY=              0.0000
  XXY=             -0.0000  XXZ=              0.0004  XZZ=             -0.0000  YZZ=              0.0000
  YYZ=             -0.0001  XYZ=              0.0001
 Hexadecapole moment (field-independent basis, Debye-Ang**3):
 XXXX=           -337.7242 YYYY=            -63.7863 ZZZZ=            -28.9976 XXXY=             -5.7238
 XXXZ=             -0.0026 YYYX=              1.5346 YYYZ=              0.0010 ZZZX=             -0.0076
 ZZZY=              0.0018 XXYY=            -66.6373 XXZZ=            -72.4930 YYZZ=            -17.1380
 XXYZ=             -0.0010 YYXZ=             -0.0020 ZZXY=              0.1420
 N-N= 1.035993470411D+02 E-N=-5.676585730052D+02  KE= 1.544108778063D+02
 No NMR shielding tensors so no spin-rotation constants.
 Leave Link  601 at Wed Dec 28 10:35:39 2022, MaxMem=  7516192768 cpu:               1.8 elap:               0.1
 (Enter /public/home/jackie_lijiaqi/g16/l9999.exe)
 Unable to Open any file for archive entry.
 1\1\GINC-NODE643\FOpt\RB3LYP\6-31G(d)\C4H6\JACKIE_LIJIAQI\28-Dec-2022\
 0\\#p opt freq b3lyp/6-31g* em=gd3bj\\$$$$Singlemol####0????\\0,1\C,1.
 8459855341,0.118516037,-0.0000322776\C,0.6098106522,-0.3984362274,-0.0
 00056206\C,-0.6097905291,0.3984493637,0.0000344713\C,-1.845972393,-0.1
 184873055,0.0000909645\H,2.0115199054,1.1937510727,0.0000629826\H,2.73
 10497148,-0.510222051,-0.0001489912\H,0.4784442437,-1.4807523601,-0.00
 01893765\H,-0.4784106222,1.4807643802,0.0000984374\H,-2.0115186584,-1.
 193719649,0.0000528822\H,-2.7310218475,0.5102707395,0.0002351134\\Vers
 ion=ES64L-G16RevC.01\State=1-A\HF=-156.0029331\RMSD=5.383e-09\RMSF=1.3
 26e-04\Dipole=0.0000055,-0.0000003,0.0000018\Quadrupole=1.1988125,1.37
 48533,-2.5736658,0.0076225,-0.0003273,0.0003492\PG=C01 [X(C4H6)]\\@
 The archive entry for this job was punched.


 WHEN A MATHEMATICIAN ENGAGED IN INVESTIGATING
 PHYSICAL ACTIONS AND RESULTS HAS ARRIVED AT HIS
 CONCLUSIONS, MAY THEY NOT BE EXPRESSED IN COMMON
 LANGUAGE AS FULLY, CLEARLY, AND DEFINITELY AS IN
 MATHEMATICAL FORMULAE?
           - LETTER FROM M. FARADAY TO J.C. MAXWELL, 1857.
 Leave Link 9999 at Wed Dec 28 10:35:39 2022, MaxMem=  7516192768 cpu:               0.5 elap:               0.0
 Job cpu time:       0 days  0 hours  1 minutes 54.4 seconds.
 Elapsed time:       0 days  0 hours  0 minutes  4.8 seconds.
 File lengths (MBytes):  RWF=      6 Int=      0 D2E=      0 Chk=      2 Scr=      1
 Normal termination of Gaussian 16 at Wed Dec 28 10:35:39 2022.
 (Enter /public/home/jackie_lijiaqi/g16/l1.exe)
 Link1:  Proceeding to internal job step number  2.
 --------------------------------------------------------------------
 #P Geom=AllCheck Guess=TCheck SCRF=Check GenChk RB3LYP/6-31G(d) Freq
 --------------------------------------------------------------------
 1/10=4,29=7,30=1,38=1,40=1/1,3;
 2/12=2,40=1/2;
 3/5=1,6=6,7=1,11=2,14=-4,25=1,30=1,70=2,71=2,74=-5,116=1,124=41,140=1/1,2,3;
 4/5=101/1;
 5/5=2,38=6,98=1/2;
 8/6=4,10=90,11=11/1;
 11/6=1,8=1,9=11,15=111,16=1/1,2,10;
 10/6=1/2;
 6/7=2,8=2,9=2,10=2,28=1/1;
 7/8=1,10=1,25=1/1,2,3,16;
 1/10=4,30=1/3;
 99//99;
 Leave Link    1 at Wed Dec 28 10:35:39 2022, MaxMem=  7516192768 cpu:               0.5 elap:               0.0
 (Enter /public/home/jackie_lijiaqi/g16/l101.exe)
 Structure from the checkpoint file:  "/public/home/jackie_lijiaqi/g16/scratch/Gau-117105.chk"
 ----------------------
 $$$$Singlemol####0????
 ----------------------
 Charge =  0 Multiplicity = 1
 Redundant internal coordinates found in file.  (old form).
 C,0,1.8459855341,0.118516037,-0.0000322776
 C,0,0.6098106522,-0.3984362274,-0.000056206
 C,0,-0.6097905291,0.3984493637,0.0000344713
 C,0,-1.845972393,-0.1184873055,0.0000909645
 H,0,2.0115199054,1.1937510727,0.0000629826
 H,0,2.7310497148,-0.510222051,-0.0001489912
 H,0,0.4784442437,-1.4807523601,-0.0001893765
 H,0,-0.4784106222,1.4807643802,0.0000984374
 H,0,-2.0115186584,-1.193719649,0.0000528822
 H,0,-2.7310218475,0.5102707395,0.0002351134
 Recover connectivity data from disk.
 ITRead=  0  0  0  0  0  0  0  0  0  0
 MicOpt= -1 -1 -1 -1 -1 -1 -1 -1 -1 -1
 NAtoms=     10 NQM=       10 NQMF=       0 NMMI=      0 NMMIF=      0
                NMic=       0 NMicF=      0.
                    Isotopes and Nuclear Properties:
 (Nuclear quadrupole moments (NQMom) in fm**2, nuclear magnetic moments (NMagM)
  in nuclear magnetons)

  Atom         1           2           3           4           5           6           7           8           9          10
 IAtWgt=          12          12          12          12           1           1           1           1           1           1
 AtmWgt=  12.0000000  12.0000000  12.0000000  12.0000000   1.0078250   1.0078250   1.0078250   1.0078250   1.0078250   1.0078250
 NucSpn=           0           0           0           0           1           1           1           1           1           1
 AtZEff=   3.6000000   3.6000000   3.6000000   3.6000000   1.0000000   1.0000000   1.0000000   1.0000000   1.0000000   1.0000000
 NQMom=    0.0000000   0.0000000   0.0000000   0.0000000   0.0000000   0.0000000   0.0000000   0.0000000   0.0000000   0.0000000
 NMagM=    0.0000000   0.0000000   0.0000000   0.0000000   2.7928460   2.7928460   2.7928460   2.7928460   2.7928460   2.7928460
 AtZNuc=   6.0000000   6.0000000   6.0000000   6.0000000   1.0000000   1.0000000   1.0000000   1.0000000   1.0000000   1.0000000
 Leave Link  101 at Wed Dec 28 10:35:39 2022, MaxMem=  7516192768 cpu:               3.7 elap:               0.1
 (Enter /public/home/jackie_lijiaqi/g16/l103.exe)

 GradGradGradGradGradGradGradGradGradGradGradGradGradGradGradGradGradGrad
 Berny optimization.
 Initialization pass.
                           ----------------------------
                           !    Initial Parameters    !
                           ! (Angstroms and Degrees)  !
 --------------------------                            --------------------------
 ! Name  Definition              Value          Derivative Info.                !
 --------------------------------------------------------------------------------
 ! R1    R(1,2)                  1.3399         calculate D2E/DX2 analytically  !
 ! R2    R(1,5)                  1.0879         calculate D2E/DX2 analytically  !
 ! R3    R(1,6)                  1.0857         calculate D2E/DX2 analytically  !
 ! R4    R(2,3)                  1.4569         calculate D2E/DX2 analytically  !
 ! R5    R(2,7)                  1.0903         calculate D2E/DX2 analytically  !
 ! R6    R(3,4)                  1.3399         calculate D2E/DX2 analytically  !
 ! R7    R(3,8)                  1.0903         calculate D2E/DX2 analytically  !
 ! R8    R(4,9)                  1.0879         calculate D2E/DX2 analytically  !
 ! R9    R(4,10)                 1.0857         calculate D2E/DX2 analytically  !
 ! A1    A(2,1,5)              121.4461         calculate D2E/DX2 analytically  !
 ! A2    A(2,1,6)              121.9165         calculate D2E/DX2 analytically  !
 ! A3    A(5,1,6)              116.6374         calculate D2E/DX2 analytically  !
 ! A4    A(1,2,3)              124.1454         calculate D2E/DX2 analytically  !
 ! A5    A(1,2,7)              119.6145         calculate D2E/DX2 analytically  !
 ! A6    A(3,2,7)              116.2401         calculate D2E/DX2 analytically  !
 ! A7    A(2,3,4)              124.1461         calculate D2E/DX2 analytically  !
 ! A8    A(2,3,8)              116.2394         calculate D2E/DX2 analytically  !
 ! A9    A(4,3,8)              119.6145         calculate D2E/DX2 analytically  !
 ! A10   A(3,4,9)              121.446          calculate D2E/DX2 analytically  !
 ! A11   A(3,4,10)             121.9159         calculate D2E/DX2 analytically  !
 ! A12   A(9,4,10)             116.6381         calculate D2E/DX2 analytically  !
 ! D1    D(5,1,2,3)              0.0003         calculate D2E/DX2 analytically  !
 ! D2    D(5,1,2,7)            179.9978         calculate D2E/DX2 analytically  !
 ! D3    D(6,1,2,3)           -179.9971         calculate D2E/DX2 analytically  !
 ! D4    D(6,1,2,7)              0.0004         calculate D2E/DX2 analytically  !
 ! D5    D(1,2,3,4)           -179.9958         calculate D2E/DX2 analytically  !
 ! D6    D(1,2,3,8)              0.0017         calculate D2E/DX2 analytically  !
 ! D7    D(7,2,3,4)              0.0065         calculate D2E/DX2 analytically  !
 ! D8    D(7,2,3,8)           -179.9959         calculate D2E/DX2 analytically  !
 ! D9    D(2,3,4,9)             -0.0012         calculate D2E/DX2 analytically  !
 ! D10   D(2,3,4,10)           179.9952         calculate D2E/DX2 analytically  !
 ! D11   D(8,3,4,9)           -179.9986         calculate D2E/DX2 analytically  !
 ! D12   D(8,3,4,10)            -0.0022         calculate D2E/DX2 analytically  !
 --------------------------------------------------------------------------------
 Trust Radius=3.00D-01 FncErr=1.00D-07 GrdErr=1.00D-07 EigMax=2.50D+02 EigMin=1.00D-04
 Number of steps in this run=      2 maximum allowed number of steps=      2.
 GradGradGradGradGradGradGradGradGradGradGradGradGradGradGradGradGradGrad

 Leave Link  103 at Wed Dec 28 10:35:39 2022, MaxMem=  7516192768 cpu:               0.1 elap:               0.0
 (Enter /public/home/jackie_lijiaqi/g16/l202.exe)
                          Input orientation:                          
 ---------------------------------------------------------------------
 Center     Atomic      Atomic             Coordinates (Angstroms)
 Number     Number       Type             X           Y           Z
 ---------------------------------------------------------------------
      1          6           0        1.845986    0.118516   -0.000032
      2          6           0        0.609811   -0.398436   -0.000056
      3          6           0       -0.609791    0.398449    0.000034
      4          6           0       -1.845972   -0.118487    0.000091
      5          1           0        2.011520    1.193751    0.000063
      6          1           0        2.731050   -0.510222   -0.000149
      7          1           0        0.478444   -1.480752   -0.000189
      8          1           0       -0.478411    1.480764    0.000098
      9          1           0       -2.011519   -1.193720    0.000053
     10          1           0       -2.731022    0.510271    0.000235
 ---------------------------------------------------------------------
                    Distance matrix (angstroms):
                    1          2          3          4          5
     1  C    0.000000
     2  C    1.339913   0.000000
     3  C    2.471679   1.456864   0.000000
     4  C    3.699557   2.471688   1.339914   0.000000
     5  H    1.087903   2.121285   2.739302   4.074582   0.000000
     6  H    1.085657   2.124182   3.462210   4.593755   1.849661
     7  H    2.104241   1.090259   2.171556   2.694194   3.082741
     8  H    2.694167   2.171548   1.090260   2.104241   2.506418
     9  H    4.074592   2.739314   2.121284   1.087902   4.678125
    10  H    4.593742   3.462212   2.124177   1.085656   4.791539
                    6          7          8          9         10
     6  H    0.000000
     7  H    2.452786   0.000000
     8  H    3.776859   3.112258   0.000000
     9  H    4.791568   2.506452   3.082740   0.000000
    10  H    5.556585   3.776883   2.452777   1.849667   0.000000
 Stoichiometry    C4H6
 Framework group  C1[X(C4H6)]
 Deg. of freedom    24
 Full point group                 C1      NOp   1
 RotChk:  IX=0 Diff= 2.51D-16
 Largest Abelian subgroup         C1      NOp   1
 Largest concise Abelian subgroup C1      NOp   1
                         Standard orientation:                         
 ---------------------------------------------------------------------
 Center     Atomic      Atomic             Coordinates (Angstroms)
 Number     Number       Type             X           Y           Z
 ---------------------------------------------------------------------
      1          6           0       -1.846570   -0.108867   -0.000043
      2          6           0       -0.607714    0.401625   -0.000067
      3          6           0        0.607711   -0.401616    0.000023
      4          6           0        1.846575    0.108861    0.000080
      5          1           0       -2.017715   -1.183224    0.000052
      6          1           0       -2.728340    0.524482   -0.000160
      7          1           0       -0.470700    1.483241   -0.000200
      8          1           0        0.470684   -1.483230    0.000087
      9          1           0        2.017731    1.183215    0.000042
     10          1           0        2.728330   -0.524508    0.000224
 ---------------------------------------------------------------------
 Rotational constants (GHZ):          42.2420962           4.4192388           4.0006980
 Leave Link  202 at Wed Dec 28 10:35:39 2022, MaxMem=  7516192768 cpu:               0.2 elap:               0.0
 (Enter /public/home/jackie_lijiaqi/g16/l301.exe)
 Standard basis: 6-31G(d) (6D, 7F)
 Ernie: Thresh=  0.10000D-02 Tol=  0.10000D-05 Strict=F.
 There are    72 symmetry adapted cartesian basis functions of A   symmetry.
 There are    72 symmetry adapted basis functions of A   symmetry.
    72 basis functions,   136 primitive gaussians,    72 cartesian basis functions
    15 alpha electrons       15 beta electrons
       nuclear repulsion energy       103.6101453610 Hartrees.
 IExCor=  402 DFT=T Ex+Corr=B3LYP ExCW=0 ScaHFX=  0.200000
 ScaDFX=  0.800000  0.720000  1.000000  0.810000 ScalE2=  1.000000  1.000000
 IRadAn=      5 IRanWt=     -1 IRanGd=            0 ICorTp=0 IEmpDi=141
 NAtoms=   10 NActive=   10 NUniq=   10 SFac= 1.00D+00 NAtFMM=   60 NAOKFM=F Big=F
 Integral buffers will be    131072 words long.
 Raffenetti 2 integral format.
 Two-electron integral symmetry is turned on.
 R6Disp:  Grimme-D3(BJ) Dispersion energy=       -0.0107983199 Hartrees.
 Nuclear repulsion after empirical dispersion term =      103.5993470411 Hartrees.
 Leave Link  301 at Wed Dec 28 10:35:40 2022, MaxMem=  7516192768 cpu:               0.7 elap:               0.0
 (Enter /public/home/jackie_lijiaqi/g16/l302.exe)
 NPDir=0 NMtPBC=     1 NCelOv=     1 NCel=       1 NClECP=     1 NCelD=      1
         NCelK=      1 NCelE2=     1 NClLst=     1 CellRange=     0.0.
 One-electron integrals computed using PRISM.
 One-electron integral symmetry used in STVInt
 NBasis=    72 RedAO= T EigKep=  3.60D-03  NBF=    72
 NBsUse=    72 1.00D-06 EigRej= -1.00D+00 NBFU=    72
 Precomputing XC quadrature grid using
 IXCGrd= 4 IRadAn=           5 IRanWt=          -1 IRanGd=           0 AccXCQ= 0.00D+00.
 Generated NRdTot=       0 NPtTot=           0 NUsed=           0 NTot=          32
 NSgBfM=    72    72    72    72    72 MxSgAt=    10 MxSgA2=    10.
 Leave Link  302 at Wed Dec 28 10:35:40 2022, MaxMem=  7516192768 cpu:               2.2 elap:               0.1
 (Enter /public/home/jackie_lijiaqi/g16/l303.exe)
 DipDrv:  MaxL=1.
 Leave Link  303 at Wed Dec 28 10:35:40 2022, MaxMem=  7516192768 cpu:               0.3 elap:               0.0
 (Enter /public/home/jackie_lijiaqi/g16/l401.exe)
 Initial guess from the checkpoint file:  "/public/home/jackie_lijiaqi/g16/scratch/Gau-117105.chk"
 B after Tr=     0.000000    0.000000   -0.000000
         Rot=    1.000000    0.000000    0.000000   -0.000000 Ang=   0.00 deg.
 Guess basis will be translated and rotated to current coordinates.
 JPrj=2 DoOrth=T DoCkMO=T.
 Leave Link  401 at Wed Dec 28 10:35:40 2022, MaxMem=  7516192768 cpu:               1.2 elap:               0.1
 (Enter /public/home/jackie_lijiaqi/g16/l502.exe)
 Keep R1 ints in memory in canonical form, NReq=28585766.
 FoFCou: FMM=F IPFlag=           0 FMFlag=           0 FMFlg1=           0
         NFxFlg=           0 DoJE=F BraDBF=F KetDBF=F FulRan=T
         wScrn=  0.000000 ICntrl=       600 IOpCl=  0 I1Cent=           0 NGrid=           0
         NMat0=    1 NMatS0=   2628 NMatT0=    0 NMatD0=    1 NMtDS0=    0 NMtDT0=    0
 Symmetry not used in FoFCou.
 Two-electron integral symmetry not used.
 Closed shell SCF:
 Using DIIS extrapolation, IDIIS=  1040.
 NGot=  7516192768 LenX=  7512724660 LenY=  7512719035
 Requested convergence on RMS density matrix=1.00D-08 within 128 cycles.
 Requested convergence on MAX density matrix=1.00D-06.
 Requested convergence on             energy=1.00D-06.
 No special actions if energy rises.

 Cycle   1  Pass 1  IDiag  1:
 E= -156.002933129574    
 DIIS: error= 1.54D-08 at cycle   1 NSaved=   1.
 NSaved= 1 IEnMin= 1 EnMin= -156.002933129574     IErMin= 1 ErrMin= 1.54D-08
 ErrMax= 1.54D-08  0.00D+00 EMaxC= 1.00D-01 BMatC= 1.41D-14 BMatP= 1.41D-14
 IDIUse=1 WtCom= 1.00D+00 WtEn= 0.00D+00
 Coeff-Com:  0.100D+01
 Coeff:      0.100D+01
 Gap=     0.207 Goal=   None    Shift=    0.000
 RMSDP=4.61D-09 MaxDP=9.47D-08              OVMax= 2.37D-07

 SCF Done:  E(RB3LYP) =  -156.002933130     A.U. after    1 cycles
            NFock=  1  Conv=0.46D-08     -V/T= 2.0103
 KE= 1.544108777753D+02 PE=-5.676585729743D+02 EE= 1.536454150283D+02
 Leave Link  502 at Wed Dec 28 10:35:40 2022, MaxMem=  7516192768 cpu:               5.0 elap:               0.2
 (Enter /public/home/jackie_lijiaqi/g16/l801.exe)
 DoSCS=F DFT=T ScalE2(SS,OS)=  1.000000  1.000000
 Range of M.O.s used for correlation:     1    72
 NBasis=    72 NAE=    15 NBE=    15 NFC=     0 NFV=     0
 NROrb=     72 NOA=    15 NOB=    15 NVA=    57 NVB=    57
 Leave Link  801 at Wed Dec 28 10:35:40 2022, MaxMem=  7516192768 cpu:               0.2 elap:               0.0
 (Enter /public/home/jackie_lijiaqi/g16/l1101.exe)
 Using compressed storage, NAtomX=    10.
 Will process     11 centers per pass.
 R6Disp: Adding Grimme-D3(BJ) dispersion energy 1st derivatives to the gradient.
 Leave Link 1101 at Wed Dec 28 10:35:40 2022, MaxMem=  7516192768 cpu:               2.0 elap:               0.1
 (Enter /public/home/jackie_lijiaqi/g16/l1102.exe)
 Symmetrizing basis deriv contribution to polar:
 IMax=3 JMax=2 DiffMx= 0.00D+00
 Leave Link 1102 at Wed Dec 28 10:35:40 2022, MaxMem=  7516192768 cpu:               0.3 elap:               0.0
 (Enter /public/home/jackie_lijiaqi/g16/l1110.exe)
 Forming Gx(P) for the SCF density, NAtomX=    10.
 Integral derivatives from FoFJK, PRISM(SPDF).
 Do as many integral derivatives as possible in FoFJK.
 G2DrvN: MDV=    7516191622.
 G2DrvN: will do    11 centers at a time, making    1 passes.
 Calling FoFCou, ICntrl=  3107 FMM=F I1Cent=   0 AccDes= 0.00D+00.
 FoFJK:  IHMeth= 1 ICntrl=    3107 DoSepK=F KAlg= 0 I1Cent=           0 FoldK=F
 IRaf=         0 NMat=       1 IRICut=       1 DoRegI=T DoRafI=F ISym2E= 0 IDoP0=0 IntGTp=1.
 FoFCou: FMM=F IPFlag=           0 FMFlag=      100000 FMFlg1=           0
         NFxFlg=           0 DoJE=F BraDBF=F KetDBF=F FulRan=T
         wScrn=  0.000000 ICntrl=      3107 IOpCl=  0 I1Cent=           0 NGrid=           0
         NMat0=    1 NMatS0=      1 NMatT0=    0 NMatD0=    1 NMtDS0=    0 NMtDT0=    0
 Symmetry not used in FoFCou.
 End of G2Drv F.D. properties file   721 does not exist.
 End of G2Drv F.D. properties file   722 does not exist.
 End of G2Drv F.D. properties file   788 does not exist.
 Leave Link 1110 at Wed Dec 28 10:35:41 2022, MaxMem=  7516192768 cpu:              30.6 elap:               1.1
 (Enter /public/home/jackie_lijiaqi/g16/l1002.exe)
 Minotr:  Closed shell wavefunction.
          IDoAtm=1111111111
          Direct CPHF calculation.
          Differentiating once with respect to electric field.
                with respect to dipole field.
          Differentiating once with respect to nuclear coordinates.
          Requested convergence is 1.0D-08 RMS, and 1.0D-07 maximum.
          Secondary convergence is 1.0D-12 RMS, and 1.0D-12 maximum.
          NewPWx=T KeepS1=F KeepF1=F KeepIn=T MapXYZ=F SortEE=F KeepMc=T.
         2953 words used for storage of precomputed grid.
 Keep R1 ints in memory in canonical form, NReq=28497121.
 FoFCou: FMM=F IPFlag=           0 FMFlag=           0 FMFlg1=           0
         NFxFlg=           0 DoJE=F BraDBF=F KetDBF=F FulRan=T
         wScrn=  0.000000 ICntrl=       600 IOpCl=  0 I1Cent=           0 NGrid=           0
         NMat0=    1 NMatS0=   2628 NMatT0=    0 NMatD0=    1 NMtDS0=    0 NMtDT0=    0
 Symmetry not used in FoFCou.
 Two-electron integral symmetry not used.
          MDV=    7516192768 using IRadAn=       1.
          Solving linear equations simultaneously, MaxMat=       0.
          There are    33 degrees of freedom in the 1st order CPHF.  IDoFFX=6 NUNeed=     3.
     30 vectors produced by pass  0 Test12= 2.59D-15 3.03D-09 XBig12= 1.21D+02 1.03D+01.
 AX will form    30 AO Fock derivatives at one time.
     30 vectors produced by pass  1 Test12= 2.59D-15 3.03D-09 XBig12= 9.36D+00 8.11D-01.
     30 vectors produced by pass  2 Test12= 2.59D-15 3.03D-09 XBig12= 8.58D-02 7.82D-02.
     30 vectors produced by pass  3 Test12= 2.59D-15 3.03D-09 XBig12= 6.69D-05 1.81D-03.
     30 vectors produced by pass  4 Test12= 2.59D-15 3.03D-09 XBig12= 2.54D-08 4.45D-05.
     11 vectors produced by pass  5 Test12= 2.59D-15 3.03D-09 XBig12= 1.17D-11 8.42D-07.
      2 vectors produced by pass  6 Test12= 2.59D-15 3.03D-09 XBig12= 4.29D-15 1.17D-08.
 InvSVY:  IOpt=1 It=  1 EMax= 5.33D-15
 Solved reduced A of dimension   163 with    33 vectors.
 FullF1:  Do perturbations      1 to       3.
 Isotropic polarizability for W=    0.000000       44.07 Bohr**3.
 End of Minotr F.D. properties file   721 does not exist.
 End of Minotr F.D. properties file   722 does not exist.
 End of Minotr F.D. properties file   788 does not exist.
 Leave Link 1002 at Wed Dec 28 10:35:43 2022, MaxMem=  7516192768 cpu:              33.8 elap:               1.2
 (Enter /public/home/jackie_lijiaqi/g16/l601.exe)
 Copying SCF densities to generalized density rwf, IOpCl= 0 IROHF=0.

 **********************************************************************

            Population analysis using the SCF Density.

 **********************************************************************

 Orbital symmetries:
       Occupied  (A) (A) (A) (A) (A) (A) (A) (A) (A) (A) (A) (A)
                 (A) (A) (A)
       Virtual   (A) (A) (A) (A) (A) (A) (A) (A) (A) (A) (A) (A)
                 (A) (A) (A) (A) (A) (A) (A) (A) (A) (A) (A) (A)
                 (A) (A) (A) (A) (A) (A) (A) (A) (A) (A) (A) (A)
                 (A) (A) (A) (A) (A) (A) (A) (A) (A) (A) (A) (A)
                 (A) (A) (A) (A) (A) (A) (A) (A) (A)
 The electronic state is 1-A.
 Alpha  occ. eigenvalues --  -10.19222 -10.19188 -10.18361 -10.18361  -0.80176
 Alpha  occ. eigenvalues --   -0.72966  -0.60295  -0.55057  -0.46408  -0.45912
 Alpha  occ. eigenvalues --   -0.39136  -0.38487  -0.34447  -0.32000  -0.22900
 Alpha virt. eigenvalues --   -0.02225   0.08548   0.11530   0.12581   0.13092
 Alpha virt. eigenvalues --    0.17524   0.19271   0.21179   0.32564   0.33668
 Alpha virt. eigenvalues --    0.39759   0.47307   0.51634   0.53018   0.57798
 Alpha virt. eigenvalues --    0.60796   0.62679   0.66218   0.67161   0.67172
 Alpha virt. eigenvalues --    0.69368   0.84380   0.85796   0.86401   0.88847
 Alpha virt. eigenvalues --    0.93907   0.94508   0.96251   1.06719   1.11916
 Alpha virt. eigenvalues --    1.13054   1.31907   1.34598   1.35448   1.42900
 Alpha virt. eigenvalues --    1.54111   1.65842   1.76690   1.82427   1.87663
 Alpha virt. eigenvalues --    1.94657   2.05426   2.10172   2.11537   2.16075
 Alpha virt. eigenvalues --    2.31595   2.39963   2.40642   2.47933   2.60006
 Alpha virt. eigenvalues --    2.73634   2.92641   2.98436   4.08738   4.12636
 Alpha virt. eigenvalues --    4.21265   4.44382
          Condensed to atoms (all electrons):
               1          2          3          4          5          6
     1  C    5.069592   0.634880  -0.028126   0.003730   0.368672   0.362766
     2  C    0.634880   4.741023   0.460198  -0.028126  -0.036379  -0.020063
     3  C   -0.028126   0.460198   4.741024   0.634880  -0.010720   0.003905
     4  C    0.003730  -0.028126   0.634880   5.069591   0.000314  -0.000218
     5  H    0.368672  -0.036379  -0.010720   0.000314   0.567101  -0.041964
     6  H    0.362766  -0.020063   0.003905  -0.000218  -0.041964   0.557874
     7  H   -0.051877   0.366164  -0.051646  -0.006421   0.005752  -0.006911
     8  H   -0.006421  -0.051647   0.366164  -0.051877   0.005863  -0.000008
     9  H    0.000314  -0.010720  -0.036379   0.368672   0.000013  -0.000004
    10  H   -0.000218   0.003905  -0.020063   0.362766  -0.000004   0.000003
               7          8          9         10
     1  C   -0.051877  -0.006421   0.000314  -0.000218
     2  C    0.366164  -0.051647  -0.010720   0.003905
     3  C   -0.051646   0.366164  -0.036379  -0.020063
     4  C   -0.006421  -0.051877   0.368672   0.362766
     5  H    0.005752   0.005863   0.000013  -0.000004
     6  H   -0.006911  -0.000008  -0.000004   0.000003
     7  H    0.606985   0.005522   0.005862  -0.000008
     8  H    0.005522   0.606986   0.005752  -0.006912
     9  H    0.005862   0.005752   0.567101  -0.041963
    10  H   -0.000008  -0.006912  -0.041963   0.557873
 Mulliken charges:
               1
     1  C   -0.353313
     2  C   -0.059236
     3  C   -0.059238
     4  C   -0.353312
     5  H    0.141351
     6  H    0.144620
     7  H    0.126578
     8  H    0.126578
     9  H    0.141351
    10  H    0.144620
 Sum of Mulliken charges =  -0.00000
 Mulliken charges with hydrogens summed into heavy atoms:
               1
     1  C   -0.067341
     2  C    0.067343
     3  C    0.067339
     4  C   -0.067341
 APT charges:
               1
     1  C   -0.106299
     2  C    0.057402
     3  C    0.057404
     4  C   -0.106299
     5  H    0.024271
     6  H    0.023832
     7  H    0.000793
     8  H    0.000793
     9  H    0.024271
    10  H    0.023832
 Sum of APT charges =   0.00000
 APT charges with hydrogens summed into heavy atoms:
               1
     1  C   -0.058196
     2  C    0.058196
     3  C    0.058196
     4  C   -0.058196
 Electronic spatial extent (au):  <R**2>=            335.4443
 Charge=             -0.0000 electrons
 Dipole moment (field-independent basis, Debye):
    X=             -0.0000    Y=              0.0000    Z=              0.0000  Tot=              0.0000
 Quadrupole moment (field-independent basis, Debye-Ang):
   XX=            -22.8568   YY=            -22.6202   ZZ=            -27.9310
   XY=              0.0115   XZ=              0.0004   YZ=             -0.0005
 Traceless Quadrupole moment (field-independent basis, Debye-Ang):
   XX=              1.6126   YY=              1.8491   ZZ=             -3.4617
   XY=              0.0115   XZ=              0.0004   YZ=             -0.0005
 Octapole moment (field-independent basis, Debye-Ang**2):
  XXX=             -0.0001  YYY=              0.0000  ZZZ=             -0.0000  XYY=              0.0000
  XXY=             -0.0000  XXZ=              0.0004  XZZ=             -0.0000  YZZ=              0.0000
  YYZ=             -0.0001  XYZ=              0.0001
 Hexadecapole moment (field-independent basis, Debye-Ang**3):
 XXXX=           -337.7242 YYYY=            -63.7863 ZZZZ=            -28.9976 XXXY=             -5.7238
 XXXZ=             -0.0026 YYYX=              1.5346 YYYZ=              0.0010 ZZZX=             -0.0076
 ZZZY=              0.0018 XXYY=            -66.6373 XXZZ=            -72.4930 YYZZ=            -17.1380
 XXYZ=             -0.0010 YYXZ=             -0.0020 ZZXY=              0.1420
 N-N= 1.035993470411D+02 E-N=-5.676585727061D+02  KE= 1.544108777753D+02
  Exact polarizability:      77.529       5.798      39.177       0.002      -0.002      15.513
 Approx polarizability:     126.077      16.382      54.756       0.003      -0.002      21.588
 No NMR shielding tensors so no spin-rotation constants.
 Leave Link  601 at Wed Dec 28 10:35:43 2022, MaxMem=  7516192768 cpu:               1.8 elap:               0.1
 (Enter /public/home/jackie_lijiaqi/g16/l701.exe)
 ... and contract with generalized density number  0.
 Compute integral second derivatives.
 R6Disp: Adding Grimme-D3(BJ) dispersion energy 2nd derivatives to the Hessian.
 Leave Link  701 at Wed Dec 28 10:35:43 2022, MaxMem=  7516192768 cpu:               3.2 elap:               0.1
 (Enter /public/home/jackie_lijiaqi/g16/l702.exe)
 L702 exits ... SP integral derivatives will be done elsewhere.
 Leave Link  702 at Wed Dec 28 10:35:43 2022, MaxMem=  7516192768 cpu:               0.2 elap:               0.0
 (Enter /public/home/jackie_lijiaqi/g16/l703.exe)
 Integral derivatives from FoFJK, PRISM(SPDF).
 Compute integral second derivatives, UseDBF=F ICtDFT=           0.
 Calling FoFJK, ICntrl=    100127 FMM=F ISym2X=0 I1Cent= 0 IOpClX= 0 NMat=1 NMatS=1 NMatT=0.
 FoFJK:  IHMeth= 1 ICntrl=  100127 DoSepK=F KAlg= 0 I1Cent=           0 FoldK=F
 IRaf=         0 NMat=       1 IRICut=       1 DoRegI=T DoRafI=F ISym2E= 0 IDoP0=0 IntGTp=1.
 FoFCou: FMM=F IPFlag=           0 FMFlag=      100000 FMFlg1=         800
         NFxFlg=           0 DoJE=F BraDBF=F KetDBF=F FulRan=T
         wScrn=  0.000000 ICntrl=    100127 IOpCl=  0 I1Cent=           0 NGrid=           0
         NMat0=    1 NMatS0=      1 NMatT0=    0 NMatD0=    1 NMtDS0=    0 NMtDT0=    0
 Symmetry not used in FoFCou.
 Leave Link  703 at Wed Dec 28 10:35:45 2022, MaxMem=  7516192768 cpu:              47.1 elap:               1.7
 (Enter /public/home/jackie_lijiaqi/g16/l716.exe)
 Dipole        =-3.31954101D-06 1.02813717D-06 1.84131591D-06
 Polarizability= 7.75293847D+01 5.79768429D+00 3.91771243D+01
                 2.29452265D-03-1.77498686D-03 1.55132865D+01
 Full mass-weighted force constant matrix:
 Low frequencies ---   -0.0006    0.0003    0.0004    2.8195    6.5324   19.2380
 Low frequencies ---  176.9943  297.1651  517.7970
 Diagonal vibrational polarizability:
        0.9880209       0.2479757       3.9912399
 Harmonic frequencies (cm**-1), IR intensities (KM/Mole), Raman scattering
 activities (A**4/AMU), depolarization ratios for plane and unpolarized
 incident light, reduced masses (AMU), force constants (mDyne/A),
 and normal coordinates:
                      1                      2                      3
                      A                      A                      A
 Frequencies --    176.9943               297.1651               517.7970
 Red. masses --      2.6558                 2.1638                 2.6863
 Frc consts  --      0.0490                 0.1126                 0.4244
 IR Inten    --      0.2128                 2.6081                 0.0000
  Atom  AN      X      Y      Z        X      Y      Z        X      Y      Z
     1   6    -0.00  -0.00  -0.18     0.06  -0.13   0.00     0.21  -0.01   0.00
     2   6    -0.00   0.00   0.21    -0.06   0.17  -0.00     0.12   0.13  -0.00
     3   6    -0.00   0.00   0.21    -0.06   0.17  -0.00    -0.12  -0.13  -0.00
     4   6     0.00  -0.00  -0.18     0.06  -0.13   0.00    -0.21   0.01  -0.00
     5   1     0.00  -0.00  -0.43     0.39  -0.19   0.00     0.53  -0.06  -0.00
     6   1     0.00  -0.00  -0.27    -0.13  -0.40   0.00     0.04  -0.26   0.00
     7   1    -0.00   0.00   0.40    -0.22   0.18  -0.00     0.25   0.10   0.00
     8   1    -0.00   0.00   0.40    -0.22   0.18   0.00    -0.25  -0.10   0.00
     9   1     0.00  -0.00  -0.43     0.39  -0.19   0.00    -0.53   0.06  -0.00
    10   1     0.00  -0.00  -0.27    -0.13  -0.40   0.00    -0.04   0.26   0.00
                      4                      5                      6
                      A                      A                      A
 Frequencies --    540.1591               781.9580               908.7335
 Red. masses --      1.0721                 1.6586                 1.8121
 Frc consts  --      0.1843                 0.5975                 0.8817
 IR Inten    --      8.0399                 0.0000                 0.0000
  Atom  AN      X      Y      Z        X      Y      Z        X      Y      Z
     1   6    -0.00   0.00   0.02    -0.00  -0.00  -0.01    -0.12   0.05  -0.00
     2   6    -0.00  -0.00  -0.05    -0.00   0.00   0.17    -0.09   0.11  -0.00
     3   6     0.00   0.00  -0.05     0.00  -0.00  -0.17     0.09  -0.11   0.00
     4   6     0.00  -0.00   0.02    -0.00  -0.00   0.01     0.12  -0.05   0.00
     5   1    -0.00  -0.00  -0.39    -0.00   0.00   0.32     0.34  -0.03  -0.00
     6   1    -0.00   0.00   0.49     0.00  -0.00  -0.60    -0.44  -0.38   0.00
     7   1    -0.00   0.00   0.32    -0.00  -0.00  -0.09     0.02   0.10  -0.00
     8   1     0.00   0.00   0.32    -0.00   0.00   0.09    -0.02  -0.10  -0.00
     9   1     0.00  -0.00  -0.39     0.00  -0.00  -0.32    -0.34   0.03  -0.00
    10   1    -0.00  -0.00   0.49    -0.00   0.00   0.60     0.44   0.38   0.00
                      7                      8                      9
                      A                      A                      A
 Frequencies --    927.9194               931.9682              1003.4953
 Red. masses --      1.3658                 1.3494                 1.1752
 Frc consts  --      0.6929                 0.6905                 0.6973
 IR Inten    --     78.6085                 0.0000                 0.0000
  Atom  AN      X      Y      Z        X      Y      Z        X      Y      Z
     1   6     0.00  -0.00  -0.12     0.00  -0.00  -0.12    -0.00   0.00   0.02
     2   6    -0.00   0.00   0.04    -0.00   0.00   0.04     0.00  -0.00  -0.09
     3   6    -0.00   0.00   0.04     0.00  -0.00  -0.04    -0.00   0.00   0.09
     4   6     0.00  -0.00  -0.12    -0.00   0.00   0.12     0.00   0.00  -0.02
     5   1    -0.00   0.00   0.49    -0.00   0.00   0.54     0.00   0.00   0.28
     6   1    -0.00   0.00   0.50    -0.00   0.00   0.44     0.00  -0.00  -0.24
     7   1    -0.00  -0.00  -0.03    -0.00   0.00   0.04     0.00   0.00   0.60
     8   1    -0.00   0.00  -0.03    -0.00  -0.00  -0.04     0.00  -0.00  -0.60
     9   1    -0.00   0.00   0.49     0.00  -0.00  -0.53     0.00  -0.00  -0.28
    10   1    -0.00   0.00   0.50     0.00  -0.00  -0.44    -0.00   0.00   0.24
                     10                     11                     12
                      A                      A                      A
 Frequencies --   1011.3498              1064.7381              1241.7651
 Red. masses --      1.1980                 1.0907                 1.9461
 Frc consts  --      0.7219                 0.7285                 1.7681
 IR Inten    --      2.3166                25.6976                 0.0000
  Atom  AN      X      Y      Z        X      Y      Z        X      Y      Z
     1   6    -0.04   0.07  -0.00    -0.00  -0.00   0.00    -0.04   0.05  -0.00
     2   6     0.00  -0.04   0.00     0.00  -0.00  -0.06     0.07  -0.18   0.00
     3   6     0.00  -0.04  -0.00     0.00  -0.00  -0.06    -0.07   0.18  -0.00
     4   6    -0.04   0.07  -0.00     0.00  -0.00   0.00     0.04  -0.05   0.00
     5   1     0.41  -0.00   0.00    -0.00   0.00   0.32     0.27  -0.00  -0.00
     6   1    -0.31  -0.30   0.00     0.00  -0.00  -0.21    -0.19  -0.16   0.00
     7   1     0.37  -0.08   0.00    -0.00   0.00   0.59     0.52  -0.24   0.00
     8   1     0.37  -0.08   0.00    -0.00   0.00   0.59    -0.52   0.24  -0.00
     9   1     0.41  -0.00   0.00    -0.00   0.00   0.32    -0.27   0.00  -0.00
    10   1    -0.31  -0.30  -0.00     0.00   0.00  -0.21     0.19   0.16  -0.00
                     13                     14                     15
                      A                      A                      A
 Frequencies --   1330.3421              1331.9372              1436.2297
 Red. masses --      1.3551                 1.2790                 1.2490
 Frc consts  --      1.4131                 1.3369                 1.5179
 IR Inten    --      0.0000                 2.0669                 2.8114
  Atom  AN      X      Y      Z        X      Y      Z        X      Y      Z
     1   6    -0.04  -0.08   0.00    -0.02  -0.08   0.00     0.02  -0.00  -0.00
     2   6     0.02   0.08  -0.00    -0.02   0.08  -0.00    -0.10  -0.02   0.00
     3   6    -0.02  -0.08   0.00    -0.02   0.08  -0.00    -0.10  -0.02  -0.00
     4   6     0.04   0.08  -0.00    -0.02  -0.08   0.00     0.02  -0.00  -0.00
     5   1    -0.40  -0.04  -0.00    -0.26  -0.04  -0.00     0.45  -0.05   0.00
     6   1    -0.03  -0.05  -0.00     0.07   0.06  -0.00     0.33   0.39  -0.00
     7   1     0.57   0.02   0.00     0.64  -0.00   0.00     0.11  -0.06   0.00
     8   1    -0.57  -0.02  -0.00     0.64  -0.00   0.00     0.11  -0.06   0.00
     9   1     0.40   0.04   0.00    -0.26  -0.04  -0.00     0.45  -0.05   0.00
    10   1     0.03   0.05   0.00     0.07   0.06  -0.00     0.33   0.39   0.00
                     16                     17                     18
                      A                      A                      A
 Frequencies --   1496.7580              1679.5290              1732.1964
 Red. masses --      1.2199                 3.5619                 4.4734
 Frc consts  --      1.6101                 5.9198                 7.9083
 IR Inten    --      0.0000                12.5018                 0.0000
  Atom  AN      X      Y      Z        X      Y      Z        X      Y      Z
     1   6    -0.04  -0.03   0.00     0.24   0.08  -0.00    -0.22  -0.08   0.00
     2   6    -0.08   0.02  -0.00    -0.22  -0.06   0.00     0.32   0.05   0.00
     3   6     0.08  -0.02   0.00    -0.22  -0.06  -0.00    -0.32  -0.05  -0.00
     4   6     0.04   0.03   0.00     0.24   0.08   0.00     0.22   0.08   0.00
     5   1     0.41  -0.09   0.00    -0.39   0.21  -0.00     0.27  -0.19   0.00
     6   1     0.30   0.41  -0.00    -0.07  -0.39   0.00     0.01   0.28  -0.00
     7   1     0.24  -0.02   0.00     0.14  -0.13   0.00    -0.36   0.16  -0.00
     8   1    -0.24   0.02  -0.00     0.14  -0.13   0.00     0.36  -0.16   0.00
     9   1    -0.41   0.09  -0.00    -0.39   0.21  -0.00    -0.27   0.19  -0.00
    10   1    -0.30  -0.41  -0.00    -0.07  -0.39   0.00    -0.01  -0.28   0.00
                     19                     20                     21
                      A                      A                      A
 Frequencies --   3147.8606              3158.2273              3163.5313
 Red. masses --      1.0805                 1.0789                 1.0718
 Frc consts  --      6.3082                 6.3402                 6.3199
 IR Inten    --      0.0000                32.6416                 7.5683
  Atom  AN      X      Y      Z        X      Y      Z        X      Y      Z
     1   6     0.01   0.00   0.00    -0.02  -0.00  -0.00    -0.04  -0.03   0.00
     2   6     0.01   0.06  -0.00    -0.01  -0.05   0.00     0.01   0.02  -0.00
     3   6    -0.01  -0.06   0.00    -0.01  -0.05   0.00     0.01   0.02  -0.00
     4   6    -0.01  -0.00  -0.00    -0.02  -0.00  -0.00    -0.04  -0.03  -0.00
     5   1    -0.02  -0.16   0.00     0.03   0.18  -0.00     0.08   0.54  -0.00
     6   1    -0.16   0.12  -0.00     0.19  -0.14   0.00     0.28  -0.21   0.00
     7   1    -0.08  -0.65   0.00     0.08   0.63  -0.00    -0.04  -0.27   0.00
     8   1     0.08   0.65  -0.00     0.08   0.63  -0.00    -0.04  -0.27   0.00
     9   1     0.02   0.16  -0.00     0.03   0.18  -0.00     0.08   0.54  -0.00
    10   1     0.16  -0.12   0.00     0.19  -0.14   0.00     0.28  -0.21   0.00
                     22                     23                     24
                      A                      A                      A
 Frequencies --   3164.7453              3246.2089              3246.6425
 Red. masses --      1.0684                 1.1156                 1.1153
 Frc consts  --      6.3049                 6.9264                 6.9263
 IR Inten    --      0.0000                 0.0024                33.1047
  Atom  AN      X      Y      Z        X      Y      Z        X      Y      Z
     1   6     0.04   0.03  -0.00    -0.03   0.06  -0.00    -0.03   0.06  -0.00
     2   6    -0.01  -0.02   0.00     0.00   0.01  -0.00     0.00   0.01  -0.00
     3   6     0.01   0.02  -0.00    -0.00  -0.01   0.00     0.00   0.01  -0.00
     4   6    -0.04  -0.03  -0.00     0.03  -0.06   0.00    -0.03   0.06  -0.00
     5   1    -0.08  -0.54   0.00    -0.07  -0.40   0.00    -0.07  -0.40   0.00
     6   1    -0.30   0.22  -0.00     0.47  -0.33   0.00     0.46  -0.33   0.00
     7   1     0.03   0.24  -0.00    -0.01  -0.07   0.00    -0.01  -0.09   0.00
     8   1    -0.03  -0.24   0.00     0.01   0.07  -0.00    -0.01  -0.09   0.00
     9   1     0.08   0.55  -0.00     0.07   0.40  -0.00    -0.07  -0.40   0.00
    10   1     0.30  -0.22   0.00    -0.46   0.33  -0.00     0.47  -0.33   0.00

 -------------------
 - Thermochemistry -
 -------------------
 Temperature   298.150 Kelvin.  Pressure   1.00000 Atm.
 Atom     1 has atomic number  6 and mass  12.00000
 Atom     2 has atomic number  6 and mass  12.00000
 Atom     3 has atomic number  6 and mass  12.00000
 Atom     4 has atomic number  6 and mass  12.00000
 Atom     5 has atomic number  1 and mass   1.00783
 Atom     6 has atomic number  1 and mass   1.00783
 Atom     7 has atomic number  1 and mass   1.00783
 Atom     8 has atomic number  1 and mass   1.00783
 Atom     9 has atomic number  1 and mass   1.00783
 Atom    10 has atomic number  1 and mass   1.00783
 Molecular mass:    54.04695 amu.
 Principal axes and moments of inertia in atomic units:
                           1         2         3
     Eigenvalues --    42.72376 408.38282 451.10658
           X            0.99999   0.00501  -0.00004
           Y           -0.00501   0.99999   0.00008
           Z            0.00004  -0.00008   1.00000
 This molecule is an asymmetric top.
 Rotational symmetry number  1.
 Rotational temperatures (Kelvin)      2.02730     0.21209     0.19200
 Rotational constants (GHZ):          42.24210     4.41924     4.00070
 Zero-point vibrational energy     224528.6 (Joules/Mol)
                                   53.66362 (Kcal/Mol)
 Warning -- explicit consideration of   4 degrees of freedom as
           vibrations may cause significant error
 Vibrational temperatures:    254.66   427.55   744.99   777.17  1125.06
          (Kelvin)           1307.46  1335.07  1340.89  1443.81  1455.11
                             1531.92  1786.62  1914.07  1916.36  2066.41
                             2153.50  2416.47  2492.24  4529.07  4543.98
                             4551.62  4553.36  4670.57  4671.19
 
 Zero-point correction=                           0.085518 (Hartree/Particle)
 Thermal correction to Energy=                    0.090162
 Thermal correction to Enthalpy=                  0.091106
 Thermal correction to Gibbs Free Energy=         0.059075
 Sum of electronic and zero-point Energies=           -155.917415
 Sum of electronic and thermal Energies=              -155.912771
 Sum of electronic and thermal Enthalpies=            -155.911827
 Sum of electronic and thermal Free Energies=         -155.943858
 
                     E (Thermal)             CV                S
                      KCal/Mol        Cal/Mol-Kelvin    Cal/Mol-Kelvin
 Total                   56.577             15.711             67.415
 Electronic               0.000              0.000              0.000
 Translational            0.889              2.981             37.884
 Rotational               0.889              2.981             23.580
 Vibrational             54.800              9.749              5.951
 Vibration     1          0.628              1.871              2.360
 Vibration     2          0.691              1.679              1.433
 Vibration     3          0.873              1.211              0.615
 Vibration     4          0.895              1.161              0.565
                       Q            Log10(Q)             Ln(Q)
 Total Bot       0.672203D-27        -27.172500        -62.566993
 Total V=0       0.145617D+13         12.163212         28.006831
 Vib (Bot)       0.135530D-38        -38.867964        -89.496794
 Vib (Bot)    1  0.113595D+01          0.055360          0.127472
 Vib (Bot)    2  0.640987D+00         -0.193151         -0.444747
 Vib (Bot)    3  0.312361D+00         -0.505344         -1.163597
 Vib (Bot)    4  0.293267D+00         -0.532737         -1.226672
 Vib (V=0)       0.293595D+01          0.467748          1.077030
 Vib (V=0)    1  0.174112D+01          0.240830          0.554531
 Vib (V=0)    2  0.131294D+01          0.118243          0.272265
 Vib (V=0)    3  0.108955D+01          0.037247          0.085765
 Vib (V=0)    4  0.107966D+01          0.033287          0.076646
 Electronic      0.100000D+01          0.000000          0.000000
 Translational   0.156175D+08          7.193611         16.563901
 Rotational      0.317580D+05          4.501854         10.365901
 
                                                        $$$$Singlemol####0????
                                                             IR Spectrum
 
    333333                                                       1 1      1 1  11   1      111                                       
    221111                                                       7 6      4 4  33   2      000 999    7        55        2    1      
    446654                                                       3 8      9 3  33   4      610 320    8        41        9    7      
    765488                                                       2 0      7 6  20   2      513 289    2        08        7    7      
 
    X  XX                                                          X        X  X           XX   X              X         X    X      
    X  XX                                                          X                       X    X              X                     
    X   X                                                          X                       X    X                                    
    X   X                                                                                  X    X                                    
    X   X                                                                                  X    X                                    
    X   X                                                                                  X    X                                    
    X   X                                                                                  X    X                                    
    X   X                                                                                       X                                    
                                                                                                X                                    
                                                                                                X                                    
                                                                                                X                                    
                                                                                                X                                    
                                                                                                X                                    
                                                                                                X                                    
                                                                                                X                                    
                                                                                                X                                    
                                                                                                X                                    
                                                                                                X                                    
                                                                                                X                                    
                                                                                                X                                    
 
 ***** Axes restored to original set *****
 -------------------------------------------------------------------
 Center     Atomic                   Forces (Hartrees/Bohr)
 Number     Number              X              Y              Z
 -------------------------------------------------------------------
      1        6           0.000291373    0.000120452   -0.000002548
      2        6          -0.000337868    0.000147173   -0.000005304
      3        6           0.000337762   -0.000146849    0.000004148
      4        6          -0.000289168   -0.000119578    0.000002498
      5        1          -0.000070853   -0.000080261    0.000000722
      6        1          -0.000093136   -0.000052532    0.000001735
      7        1           0.000074384    0.000030353    0.000001751
      8        1          -0.000074986   -0.000030475    0.000000097
      9        1           0.000070114    0.000079981   -0.000000511
     10        1           0.000092376    0.000051737   -0.000002589
 -------------------------------------------------------------------
 Cartesian Forces:  Max     0.000337868 RMS     0.000132575
 Force constants in Cartesian coordinates: 
                1             2             3             4             5 
      1  0.826202D+00
      2  0.641450D-01  0.672988D+00
      3 -0.188638D-04  0.591394D-04  0.103424D+00
      4 -0.471043D+00 -0.151427D+00 -0.526450D-05  0.788316D+00
      5 -0.161918D+00 -0.186788D+00 -0.104354D-04  0.108029D+00  0.680587D+00
      6 -0.760615D-05 -0.106285D-04 -0.489256D-01 -0.308814D-05  0.583154D-04
      7 -0.526003D-01  0.110016D-01  0.283745D-05 -0.186944D+00  0.808957D-01
      8 -0.682033D-02  0.163175D-01  0.000000D+00  0.808962D-01 -0.169429D+00
      9  0.153018D-05  0.000000D+00  0.608826D-02  0.834808D-05 -0.106480D-04
     10  0.692545D-02  0.664985D-02  0.000000D+00 -0.525992D-01 -0.682024D-02
     11  0.664971D-02 -0.280222D-02  0.000000D+00  0.110020D-01  0.163174D-01
     12  0.000000D+00  0.000000D+00  0.197031D-02  0.319610D-05  0.132931D-05
     13 -0.651103D-01 -0.353680D-01 -0.169113D-05 -0.396198D-04 -0.314733D-01
     14 -0.391575D-01 -0.332284D+00 -0.272140D-04 -0.126222D-02 -0.106817D-01
     15 -0.228061D-05 -0.262675D-04 -0.339889D-01  0.000000D+00  0.000000D+00
     16 -0.244216D+00  0.134638D+00  0.257183D-04 -0.196301D-01  0.200550D-01
     17  0.139184D+00 -0.159859D+00 -0.205537D-04 -0.131446D-01  0.112844D-01
     18  0.274227D-04 -0.214516D-04 -0.325044D-01 -0.102013D-05  0.000000D+00
     19 -0.108301D-02 -0.323183D-01 -0.343884D-05 -0.615599D-01 -0.293997D-01
     20 -0.356084D-03 -0.991762D-02 -0.173056D-05 -0.308017D-01 -0.324297D+00
     21  0.000000D+00 -0.108463D-05  0.525916D-02 -0.281499D-05 -0.357199D-04
     22  0.172877D-02  0.105602D-02  0.000000D+00  0.422241D-02  0.270817D-01
     23 -0.118897D-02  0.109526D-02  0.000000D+00 -0.360747D-02 -0.167971D-01
     24  0.000000D+00  0.000000D+00 -0.132599D-02  0.000000D+00 -0.262586D-05
     25 -0.650298D-04  0.252041D-03  0.000000D+00  0.171154D-02 -0.195201D-02
     26 -0.191825D-03  0.424174D-03  0.000000D+00  0.221634D-02  0.963229D-03
     27  0.000000D+00  0.000000D+00  0.159252D-03  0.000000D+00  0.000000D+00
     28 -0.738668D-03  0.137032D-02  0.000000D+00 -0.243449D-02 -0.449782D-02
     29 -0.346269D-03  0.826796D-03  0.000000D+00 -0.190046D-02 -0.116014D-02
     30  0.000000D+00  0.000000D+00 -0.155973D-03  0.000000D+00  0.000000D+00
                6             7             8             9            10 
      6  0.132517D+00
      7  0.904911D-05  0.788321D+00
      8 -0.108102D-04  0.108027D+00  0.680581D+00
      9 -0.650354D-01 -0.329693D-04  0.265296D-04  0.132518D+00
     10  0.286784D-05 -0.471046D+00 -0.161914D+00  0.196962D-04  0.826199D+00
     11  0.000000D+00 -0.151422D+00 -0.186784D+00  0.198263D-05  0.641415D-01
     12  0.608818D-02  0.234013D-04  0.260050D-05 -0.489258D-01 -0.595337D-04
     13 -0.305305D-05  0.171144D-02 -0.195216D-02  0.000000D+00 -0.650137D-04
     14 -0.155514D-05  0.221649D-02  0.963154D-03  0.000000D+00 -0.191836D-03
     15  0.471703D-02  0.000000D+00  0.000000D+00 -0.789404D-02  0.000000D+00
     16  0.291599D-05 -0.243449D-02 -0.449785D-02  0.000000D+00 -0.738644D-03
     17  0.100286D-05 -0.190043D-02 -0.116030D-02 -0.156113D-05 -0.346294D-03
     18  0.431232D-02  0.000000D+00 -0.125896D-05  0.126768D-01  0.000000D+00
     19 -0.343105D-05  0.422266D-02  0.270816D-01  0.296354D-05  0.172888D-02
     20 -0.341292D-04 -0.360751D-02 -0.167964D-01 -0.204307D-05 -0.118885D-02
     21 -0.414559D-01 -0.129682D-05 -0.191559D-05  0.299916D-02  0.000000D+00
     22  0.212340D-05 -0.615605D-01 -0.294029D-01 -0.144149D-05 -0.108348D-02
     23 -0.155273D-05 -0.308045D-01 -0.324295D+00 -0.166198D-04 -0.356205D-03
     24  0.299927D-02 -0.150849D-05 -0.172732D-04 -0.414561D-01  0.000000D+00
     25 -0.106895D-05 -0.399928D-04 -0.314736D-01 -0.122399D-05 -0.651111D-01
     26  0.000000D+00 -0.126232D-02 -0.106813D-01  0.000000D+00 -0.391609D-01
     27 -0.789396D-02  0.000000D+00  0.151593D-05  0.471708D-02  0.124521D-05
     28  0.129102D-05 -0.196305D-01  0.200556D-01  0.330299D-05 -0.244210D+00
     29 -0.104249D-05 -0.131442D-01  0.112843D-01  0.141047D-05  0.139187D+00
     30  0.126767D-01  0.000000D+00 -0.124163D-05  0.431237D-02  0.349332D-04
               11            12            13            14            15 
     11  0.672991D+00
     12  0.320067D-04  0.103423D+00
     13  0.252060D-03  0.000000D+00  0.617568D-01
     14  0.424220D-03  0.000000D+00  0.454671D-01  0.352747D+00
     15  0.000000D+00  0.159259D-03  0.271521D-05  0.300947D-04  0.226082D-01
     16  0.137032D-02  0.000000D+00  0.649356D-02 -0.425091D-02  0.000000D+00
     17  0.826847D-03  0.000000D+00  0.234248D-01 -0.124668D-01 -0.265037D-05
     18  0.000000D+00 -0.155981D-03  0.203546D-05 -0.122906D-05  0.216756D-02
     19  0.105578D-02  0.000000D+00 -0.464601D-02 -0.197219D-02  0.000000D+00
     20  0.109525D-02  0.000000D+00 -0.164758D-02  0.725541D-03 -0.128486D-05
     21  0.000000D+00 -0.132596D-02  0.000000D+00  0.000000D+00  0.114098D-01
     22 -0.323183D-01 -0.163583D-05 -0.259090D-03 -0.986733D-03  0.000000D+00
     23 -0.991725D-02  0.000000D+00  0.976162D-03  0.615761D-03  0.000000D+00
     24  0.106682D-05  0.525914D-02  0.000000D+00  0.000000D+00  0.246430D-03
     25 -0.353714D-01  0.157854D-05  0.125833D-03  0.229818D-03  0.000000D+00
     26 -0.332286D+00 -0.118048D-04  0.229812D-03 -0.311645D-04  0.000000D+00
     27 -0.108781D-04 -0.339886D-01  0.000000D+00  0.000000D+00  0.307969D-03
     28  0.134641D+00  0.328200D-04  0.323647D-04 -0.920274D-04  0.000000D+00
     29 -0.159866D+00 -0.233772D-04  0.910585D-04 -0.117511D-04  0.000000D+00
     30 -0.239863D-04 -0.325040D-01  0.000000D+00  0.000000D+00  0.266787D-03
               16            17            18            19            20 
     16  0.259691D+00
     17 -0.146979D+00  0.159760D+00
     18 -0.279197D-04  0.224434D-04  0.221170D-01
     19  0.107805D-02  0.258717D-03  0.000000D+00  0.644034D-01
     20 -0.177389D-03  0.128063D-02  0.102785D-05  0.341027D-01  0.347454D+00
     21  0.000000D+00  0.000000D+00 -0.718892D-02  0.380706D-05  0.383485D-04
     22  0.169404D-03 -0.390778D-03  0.000000D+00 -0.405437D-02  0.256884D-02
     23  0.131372D-03  0.426168D-03  0.000000D+00  0.256890D-02 -0.586670D-03
     24  0.000000D+00  0.000000D+00 -0.241449D-03  0.000000D+00  0.000000D+00
     25  0.323625D-04  0.910644D-04  0.000000D+00 -0.259071D-03  0.976163D-03
     26 -0.920229D-04 -0.117475D-04  0.000000D+00 -0.986749D-03  0.615696D-03
     27  0.000000D+00  0.000000D+00  0.266776D-03  0.000000D+00  0.000000D+00
     28 -0.445063D-03 -0.197966D-03  0.000000D+00  0.169381D-03  0.131387D-03
     29 -0.197956D-03 -0.796188D-04  0.000000D+00 -0.390778D-03  0.426137D-03
     30  0.000000D+00  0.000000D+00 -0.144973D-02  0.000000D+00  0.000000D+00
               21            22            23            24            25 
     21  0.270937D-01
     22  0.000000D+00  0.644048D-01
     23  0.000000D+00  0.341056D-01  0.347452D+00
     24  0.320399D-02  0.000000D+00  0.189847D-04  0.270939D-01
     25  0.000000D+00 -0.464606D-02 -0.164755D-02  0.118067D-05  0.617576D-01
     26  0.000000D+00 -0.197211D-02  0.725602D-03  0.000000D+00  0.454712D-01
     27  0.246425D-03  0.000000D+00  0.000000D+00  0.114098D-01 -0.146348D-05
     28  0.000000D+00  0.107805D-02 -0.177387D-03  0.000000D+00  0.649396D-02
     29  0.000000D+00  0.258647D-03  0.128065D-02  0.000000D+00  0.234243D-01
     30 -0.241459D-03  0.000000D+00  0.000000D+00 -0.718896D-02  0.000000D+00
               26            27            28            29            30 
     26  0.352748D+00
     27  0.127836D-04  0.226079D-01
     28 -0.425134D-02  0.000000D+00  0.259685D+00
     29 -0.124667D-01 -0.334333D-05 -0.146981D+00  0.159766D+00
     30  0.000000D+00  0.216734D-02 -0.357531D-04  0.253954D-04  0.221169D-01
 FormGI is forming the generalized inverse of G from B-inverse, IUseBI=4.
 Force constants in internal coordinates: 
                1             2             3             4             5 
      1  0.616473D+00
      2  0.733548D-02  0.359686D+00
      3  0.576114D-02  0.245188D-02  0.364960D+00
      4  0.308886D-01 -0.144298D-03 -0.464876D-03  0.349840D+00
      5  0.712662D-02 -0.143087D-03  0.791914D-03  0.559724D-02  0.351503D+00
      6 -0.977268D-02 -0.142337D-03  0.448416D-03  0.308881D-01  0.911254D-03
      7  0.911208D-03  0.629205D-03 -0.948321D-04  0.559725D-02  0.224379D-04
      8 -0.142335D-03 -0.408058D-04  0.713053D-04 -0.144199D-03  0.629164D-03
      9  0.448420D-03  0.713048D-04  0.135401D-03 -0.464913D-03 -0.948172D-04
     10  0.957694D-02  0.564531D-02 -0.111959D-01 -0.377207D-02  0.378220D-02
     11  0.114542D-01 -0.120543D-01  0.440832D-02  0.443873D-02 -0.295290D-02
     12 -0.210311D-01  0.640903D-02  0.678760D-02 -0.666662D-03 -0.829298D-03
     13  0.151975D-01 -0.496881D-02  0.452561D-02  0.167134D-01 -0.128397D-01
     14  0.958789D-02  0.525850D-02 -0.311860D-02 -0.241341D-01  0.568823D-02
     15 -0.247853D-01 -0.289692D-03 -0.140701D-02  0.742065D-02  0.715145D-02
     16  0.572896D-02 -0.408352D-03  0.110377D-02  0.167115D-01 -0.396670D-02
     17 -0.419117D-02  0.133589D-02 -0.941643D-03  0.742218D-02  0.412560D-02
     18 -0.153778D-02 -0.927536D-03 -0.162127D-03 -0.241337D-01 -0.158900D-03
     19 -0.725977D-03 -0.366079D-03 -0.141557D-03 -0.377213D-02  0.898237D-03
     20  0.859069D-03  0.232997D-03  0.314698D-03  0.443881D-02 -0.451581D-04
     21 -0.133093D-03  0.133082D-03 -0.173141D-03 -0.666681D-03 -0.853079D-03
     22  0.000000D+00  0.000000D+00  0.000000D+00  0.000000D+00  0.000000D+00
     23  0.000000D+00  0.000000D+00  0.000000D+00  0.000000D+00  0.000000D+00
     24  0.000000D+00  0.000000D+00  0.000000D+00  0.000000D+00  0.000000D+00
     25  0.000000D+00  0.000000D+00  0.000000D+00  0.000000D+00  0.000000D+00
     26  0.000000D+00  0.000000D+00  0.000000D+00  0.000000D+00  0.000000D+00
     27  0.000000D+00  0.000000D+00  0.000000D+00  0.000000D+00  0.000000D+00
     28  0.000000D+00  0.000000D+00  0.000000D+00  0.000000D+00  0.000000D+00
     29  0.000000D+00  0.000000D+00  0.000000D+00  0.000000D+00  0.000000D+00
     30  0.000000D+00  0.000000D+00  0.000000D+00  0.000000D+00  0.000000D+00
     31  0.000000D+00  0.000000D+00  0.000000D+00  0.000000D+00  0.000000D+00
     32  0.000000D+00  0.000000D+00  0.000000D+00  0.000000D+00  0.000000D+00
     33  0.000000D+00  0.000000D+00  0.000000D+00  0.000000D+00  0.000000D+00
                6             7             8             9            10 
      6  0.616471D+00
      7  0.712667D-02  0.351502D+00
      8  0.733555D-02 -0.143101D-03  0.359688D+00
      9  0.576117D-02  0.791929D-03  0.245170D-02  0.364961D+00
     10 -0.725992D-03  0.898212D-03 -0.366064D-03 -0.141560D-03  0.824129D-01
     11  0.859074D-03 -0.451273D-04  0.232979D-03  0.314699D-03 -0.449539D-01
     12 -0.133082D-03 -0.853085D-03  0.133085D-03 -0.173139D-03 -0.374590D-01
     13  0.572899D-02 -0.396700D-02 -0.408391D-03  0.110376D-02 -0.906112D-02
     14 -0.153778D-02 -0.158747D-03 -0.927516D-03 -0.162139D-03  0.107536D-01
     15 -0.419121D-02  0.412575D-02  0.133591D-02 -0.941620D-03 -0.169251D-02
     16  0.151963D-01 -0.128396D-01 -0.496860D-02  0.452556D-02 -0.295708D-03
     17 -0.247848D-01  0.715147D-02 -0.289782D-03 -0.140695D-02  0.255135D-03
     18  0.958852D-02  0.568815D-02  0.525838D-02 -0.311862D-02  0.405728D-04
     19  0.957657D-02  0.378226D-02  0.564546D-02 -0.111959D-01  0.271144D-03
     20  0.114547D-01 -0.295293D-02 -0.120543D-01  0.440841D-02 -0.551048D-03
     21 -0.210313D-01 -0.829330D-03  0.640884D-02  0.678746D-02  0.279904D-03
     22  0.000000D+00  0.000000D+00  0.000000D+00  0.000000D+00  0.000000D+00
     23  0.000000D+00  0.000000D+00  0.000000D+00  0.000000D+00  0.000000D+00
     24  0.000000D+00  0.000000D+00  0.000000D+00  0.000000D+00  0.000000D+00
     25  0.000000D+00  0.000000D+00  0.000000D+00  0.000000D+00  0.000000D+00
     26  0.000000D+00  0.000000D+00  0.000000D+00  0.000000D+00  0.000000D+00
     27  0.000000D+00  0.000000D+00  0.000000D+00  0.000000D+00  0.000000D+00
     28  0.000000D+00  0.000000D+00  0.000000D+00  0.000000D+00  0.000000D+00
     29  0.000000D+00  0.000000D+00  0.000000D+00  0.000000D+00  0.000000D+00
     30  0.000000D+00  0.000000D+00  0.000000D+00  0.000000D+00  0.000000D+00
     31  0.148424D-05  0.000000D+00  0.000000D+00  0.000000D+00  0.000000D+00
     32  0.000000D+00  0.000000D+00  0.000000D+00  0.000000D+00  0.000000D+00
     33  0.118068D-05  0.000000D+00  0.000000D+00  0.000000D+00  0.000000D+00
               11            12            13            14            15 
     11  0.816657D-01
     12 -0.367118D-01  0.741708D-01
     13  0.107960D-01 -0.173483D-02  0.112932D+00
     14 -0.926565D-02 -0.148798D-02 -0.568037D-01  0.925984D-01
     15 -0.153030D-02  0.322281D-02 -0.561284D-01 -0.357947D-01  0.919231D-01
     16  0.191730D-02 -0.162160D-02  0.155785D-01 -0.241650D-02 -0.131620D-01
     17 -0.727293D-03  0.472157D-03 -0.131616D-01 -0.100648D-02  0.141680D-01
     18 -0.119001D-02  0.114944D-02 -0.241693D-02  0.342298D-02 -0.100604D-02
     19 -0.551053D-03  0.279909D-03 -0.295623D-03  0.405896D-04  0.255034D-03
     20  0.893160D-03 -0.342112D-03  0.191721D-02 -0.118999D-02 -0.727217D-03
     21 -0.342107D-03  0.622033D-04 -0.162158D-02  0.114940D-02  0.472184D-03
     22  0.000000D+00  0.000000D+00 -0.100033D-05  0.156469D-05  0.000000D+00
     23  0.000000D+00  0.000000D+00  0.000000D+00  0.000000D+00  0.000000D+00
     24 -0.123151D-05  0.000000D+00 -0.126635D-05  0.152391D-05  0.000000D+00
     25  0.000000D+00  0.000000D+00  0.000000D+00  0.000000D+00  0.000000D+00
     26  0.000000D+00  0.000000D+00  0.000000D+00  0.000000D+00  0.000000D+00
     27  0.000000D+00  0.000000D+00  0.000000D+00  0.000000D+00  0.000000D+00
     28  0.000000D+00  0.000000D+00  0.000000D+00  0.000000D+00  0.000000D+00
     29  0.000000D+00  0.000000D+00  0.000000D+00  0.000000D+00  0.000000D+00
     30  0.000000D+00  0.000000D+00  0.000000D+00  0.000000D+00  0.000000D+00
     31  0.000000D+00  0.000000D+00  0.000000D+00  0.000000D+00  0.000000D+00
     32  0.000000D+00  0.000000D+00  0.000000D+00  0.000000D+00  0.000000D+00
     33  0.000000D+00  0.000000D+00  0.000000D+00  0.000000D+00  0.000000D+00
               16            17            18            19            20 
     16  0.112929D+00
     17 -0.561275D-01  0.919236D-01
     18 -0.568019D-01 -0.357961D-01  0.925980D-01
     19 -0.906167D-02 -0.169221D-02  0.107539D-01  0.824128D-01
     20  0.107963D-01 -0.153053D-02 -0.926575D-02 -0.449543D-01  0.816662D-01
     21 -0.173462D-02  0.322274D-02 -0.148812D-02 -0.374585D-01 -0.367118D-01
     22  0.000000D+00  0.000000D+00  0.000000D+00  0.000000D+00  0.000000D+00
     23  0.000000D+00  0.000000D+00  0.000000D+00  0.000000D+00  0.000000D+00
     24  0.000000D+00  0.000000D+00  0.000000D+00  0.000000D+00  0.000000D+00
     25  0.000000D+00  0.000000D+00  0.000000D+00  0.000000D+00  0.000000D+00
     26  0.000000D+00  0.000000D+00  0.000000D+00  0.000000D+00  0.000000D+00
     27  0.000000D+00 -0.100261D-05  0.000000D+00  0.000000D+00  0.000000D+00
     28  0.000000D+00  0.000000D+00  0.000000D+00  0.000000D+00  0.000000D+00
     29  0.000000D+00  0.000000D+00  0.000000D+00  0.000000D+00  0.000000D+00
     30  0.000000D+00  0.000000D+00 -0.138412D-05  0.000000D+00  0.000000D+00
     31  0.121000D-05  0.000000D+00 -0.137848D-05  0.000000D+00  0.167833D-05
     32  0.000000D+00  0.000000D+00  0.000000D+00  0.000000D+00  0.000000D+00
     33  0.000000D+00  0.000000D+00  0.000000D+00  0.000000D+00  0.146803D-05
               21            22            23            24            25 
     21  0.741704D-01
     22  0.000000D+00  0.191665D-01
     23  0.000000D+00  0.140183D-01  0.221696D-01
     24  0.000000D+00  0.175838D-02 -0.652724D-02  0.217132D-01
     25  0.000000D+00 -0.338984D-02  0.162413D-02  0.134276D-01  0.184416D-01
     26  0.000000D+00 -0.162517D-02  0.432777D-02 -0.278589D-02  0.316705D-02
     27  0.000000D+00 -0.240531D-02  0.405683D-02 -0.424822D-02  0.221392D-02
     28  0.000000D+00  0.336475D-02 -0.357297D-02  0.524497D-02 -0.169276D-02
     29  0.000000D+00  0.258462D-02 -0.384391D-02  0.378264D-02 -0.264588D-02
     30  0.000000D+00 -0.435220D-03  0.369665D-03 -0.122919D-02 -0.424301D-03
     31  0.000000D+00 -0.122920D-02  0.279534D-03 -0.247701D-02 -0.968267D-03
     32  0.000000D+00  0.369670D-03  0.649196D-03  0.279537D-03  0.559063D-03
     33  0.000000D+00 -0.424315D-03  0.559065D-03 -0.968283D-03  0.150969D-04
               26            27            28            29            30 
     26  0.757880D-02
     27  0.180902D-02  0.853336D-02
     28  0.180890D-02 -0.445443D-02  0.853331D-02
     29 -0.396088D-02  0.226991D-02  0.226998D-02  0.850077D-02
     30 -0.162511D-02  0.336472D-02 -0.240524D-02  0.258458D-02  0.191665D-01
     31 -0.278581D-02  0.524495D-02 -0.424816D-02  0.378260D-02  0.175823D-02
     32  0.432775D-02 -0.357298D-02  0.405682D-02 -0.384391D-02  0.140183D-01
     33  0.316705D-02 -0.169275D-02  0.221390D-02 -0.264590D-02 -0.338992D-02
               31            32            33 
     31  0.217133D-01
     32 -0.652733D-02  0.221697D-01
     33  0.134278D-01  0.162408D-02  0.184418D-01
 Leave Link  716 at Wed Dec 28 10:35:45 2022, MaxMem=  7516192768 cpu:               0.6 elap:               0.0
 (Enter /public/home/jackie_lijiaqi/g16/l103.exe)

 GradGradGradGradGradGradGradGradGradGradGradGradGradGradGradGradGradGrad
 Berny optimization.
 Red2BG is reusing G-inverse.
 Internal  Forces:  Max     0.000204187 RMS     0.000074904
 Search for a local minimum.
 Step number   1 out of a maximum of    2
 All quantities printed in internal units (Hartrees-Bohrs-Radians)
 Second derivative matrix not updated -- analytic derivatives used.
 ITU=  0
     Eigenvalues ---    0.00787   0.02350   0.02403   0.02954   0.03235
     Eigenvalues ---    0.03848   0.04035   0.10721   0.10911   0.11210
     Eigenvalues ---    0.11396   0.11953   0.13790   0.15697   0.18920
     Eigenvalues ---    0.34865   0.35205   0.35716   0.36032   0.36137
     Eigenvalues ---    0.36621   0.36665   0.61891   0.62919
 Angle between quadratic step and forces=  25.88 degrees.
 Linear search not attempted -- first point.
 Iteration  1 RMS(Cart)=  0.00070763 RMS(Int)=  0.00000039
 Iteration  2 RMS(Cart)=  0.00000043 RMS(Int)=  0.00000001
 ITry= 1 IFail=0 DXMaxC= 1.86D-03 DCOld= 1.00D+10 DXMaxT= 3.00D-01 DXLimC= 3.00D+00 Rises=F
 Variable       Old X    -DE/DX   Delta X   Delta X   Delta X     New X
                                 (Linear)    (Quad)   (Total)
    R1        2.53207   0.00011   0.00000   0.00030   0.00030   2.53237
    R2        2.05584  -0.00009   0.00000  -0.00028  -0.00028   2.05555
    R3        2.05159  -0.00005   0.00000  -0.00016  -0.00016   2.05144
    R4        2.75307  -0.00020   0.00000  -0.00084  -0.00084   2.75224
    R5        2.06029  -0.00004   0.00000  -0.00007  -0.00007   2.06022
    R6        2.53207   0.00011   0.00000   0.00030   0.00030   2.53237
    R7        2.06029  -0.00004   0.00000  -0.00007  -0.00007   2.06022
    R8        2.05584  -0.00009   0.00000  -0.00028  -0.00028   2.05555
    R9        2.05159  -0.00005   0.00000  -0.00015  -0.00015   2.05144
    A1        2.11963  -0.00001   0.00000  -0.00007  -0.00007   2.11957
    A2        2.12784  -0.00009   0.00000  -0.00097  -0.00097   2.12688
    A3        2.03571   0.00011   0.00000   0.00103   0.00103   2.03674
    A4        2.16675   0.00011   0.00000   0.00071   0.00071   2.16745
    A5        2.08767  -0.00013   0.00000  -0.00106  -0.00106   2.08661
    A6        2.02877   0.00002   0.00000   0.00035   0.00035   2.02913
    A7        2.16676   0.00011   0.00000   0.00069   0.00069   2.16745
    A8        2.02876   0.00002   0.00000   0.00037   0.00037   2.02913
    A9        2.08767  -0.00013   0.00000  -0.00106  -0.00106   2.08661
   A10        2.11963  -0.00001   0.00000  -0.00007  -0.00007   2.11957
   A11        2.12783  -0.00009   0.00000  -0.00096  -0.00096   2.12688
   A12        2.03572   0.00010   0.00000   0.00102   0.00102   2.03674
    D1        0.00000  -0.00000   0.00000  -0.00000  -0.00000   0.00000
    D2        3.14155   0.00000   0.00000   0.00004   0.00004  -3.14159
    D3       -3.14154  -0.00000   0.00000  -0.00005  -0.00005  -3.14159
    D4        0.00001  -0.00000   0.00000  -0.00001  -0.00001  -0.00000
    D5       -3.14152  -0.00000   0.00000  -0.00007  -0.00007   3.14159
    D6        0.00003   0.00000   0.00000  -0.00003  -0.00003  -0.00000
    D7        0.00011  -0.00000   0.00000  -0.00011  -0.00011   0.00000
    D8       -3.14152  -0.00000   0.00000  -0.00007  -0.00007   3.14159
    D9       -0.00002   0.00000   0.00000   0.00002   0.00002  -0.00000
   D10        3.14151   0.00000   0.00000   0.00008   0.00008   3.14159
   D11       -3.14157  -0.00000   0.00000  -0.00002  -0.00002  -3.14159
   D12       -0.00004   0.00000   0.00000   0.00004   0.00004   0.00000
         Item               Value     Threshold  Converged?
 Maximum Force            0.000204     0.000450     YES
 RMS     Force            0.000075     0.000300     YES
 Maximum Displacement     0.001857     0.001800     NO 
 RMS     Displacement     0.000708     0.001200     YES
 Predicted change in Energy=-5.668751D-07
                           ----------------------------
                           ! Non-Optimized Parameters !
                           ! (Angstroms and Degrees)  !
 --------------------------                            --------------------------
 ! Name  Definition              Value          Derivative Info.                !
 --------------------------------------------------------------------------------
 ! R1    R(1,2)                  1.3401         -DE/DX =    0.0001              !
 ! R2    R(1,5)                  1.0878         -DE/DX =   -0.0001              !
 ! R3    R(1,6)                  1.0856         -DE/DX =    0.0                 !
 ! R4    R(2,3)                  1.4564         -DE/DX =   -0.0002              !
 ! R5    R(2,7)                  1.0902         -DE/DX =    0.0                 !
 ! R6    R(3,4)                  1.3401         -DE/DX =    0.0001              !
 ! R7    R(3,8)                  1.0902         -DE/DX =    0.0                 !
 ! R8    R(4,9)                  1.0878         -DE/DX =   -0.0001              !
 ! R9    R(4,10)                 1.0856         -DE/DX =    0.0                 !
 ! A1    A(2,1,5)              121.4422         -DE/DX =    0.0                 !
 ! A2    A(2,1,6)              121.8612         -DE/DX =   -0.0001              !
 ! A3    A(5,1,6)              116.6966         -DE/DX =    0.0001              !
 ! A4    A(1,2,3)              124.1859         -DE/DX =    0.0001              !
 ! A5    A(1,2,7)              119.5538         -DE/DX =   -0.0001              !
 ! A6    A(3,2,7)              116.2603         -DE/DX =    0.0                 !
 ! A7    A(2,3,4)              124.1859         -DE/DX =    0.0001              !
 ! A8    A(2,3,8)              116.2603         -DE/DX =    0.0                 !
 ! A9    A(4,3,8)              119.5538         -DE/DX =   -0.0001              !
 ! A10   A(3,4,9)              121.4422         -DE/DX =    0.0                 !
 ! A11   A(3,4,10)             121.8612         -DE/DX =   -0.0001              !
 ! A12   A(9,4,10)             116.6966         -DE/DX =    0.0001              !
 ! D1    D(5,1,2,3)              0.0            -DE/DX =    0.0                 !
 ! D2    D(5,1,2,7)           -180.0            -DE/DX =    0.0                 !
 ! D3    D(6,1,2,3)           -180.0            -DE/DX =    0.0                 !
 ! D4    D(6,1,2,7)              0.0            -DE/DX =    0.0                 !
 ! D5    D(1,2,3,4)            180.0            -DE/DX =    0.0                 !
 ! D6    D(1,2,3,8)              0.0            -DE/DX =    0.0                 !
 ! D7    D(7,2,3,4)              0.0            -DE/DX =    0.0                 !
 ! D8    D(7,2,3,8)            180.0            -DE/DX =    0.0                 !
 ! D9    D(2,3,4,9)              0.0            -DE/DX =    0.0                 !
 ! D10   D(2,3,4,10)           180.0            -DE/DX =    0.0                 !
 ! D11   D(8,3,4,9)           -180.0            -DE/DX =    0.0                 !
 ! D12   D(8,3,4,10)             0.0            -DE/DX =    0.0                 !
 --------------------------------------------------------------------------------
 GradGradGradGradGradGradGradGradGradGradGradGradGradGradGradGradGradGrad

 Leave Link  103 at Wed Dec 28 10:35:45 2022, MaxMem=  7516192768 cpu:               1.7 elap:               0.1
 (Enter /public/home/jackie_lijiaqi/g16/l9999.exe)

 ----------------------------------------------------------------------

 Electric dipole moment (input orientation):
 (Debye = 10**-18 statcoulomb cm , SI units = C m)
                  (au)            (Debye)         (10**-30 SI)
   Tot        0.000000D+00      0.000000D+00      0.000000D+00
   x          0.000000D+00      0.000000D+00      0.000000D+00
   y          0.000000D+00      0.000000D+00      0.000000D+00
   z          0.000000D+00      0.000000D+00      0.000000D+00

 Dipole polarizability, Alpha (input orientation).
 (esu units = cm**3 , SI units = C**2 m**2 J**-1)
 Alpha(0;0):
               (au)            (10**-24 esu)      (10**-40 SI)
   iso        0.440733D+02      0.653098D+01      0.726670D+01
   aniso      0.551296D+02      0.816937D+01      0.908965D+01
   xx         0.774678D+02      0.114795D+02      0.127727D+02
   yx         0.599756D+01      0.888747D+00      0.988864D+00
   yy         0.392387D+02      0.581457D+01      0.646959D+01
   zx        -0.230376D-02     -0.341382D-03     -0.379838D-03
   zy         0.176299D-02      0.261248D-03      0.290677D-03
   zz         0.155133D+02      0.229883D+01      0.255780D+01

 ----------------------------------------------------------------------

 Dipole orientation:
     6          1.82340589          0.73014194          2.89157865
     6          0.48004321         -0.54853889          1.16770873
     6         -0.47998530          0.54855767         -1.16770219
     6         -1.82347887         -0.73005791         -2.89151969
     1          2.28450010          2.71696301          2.63388949
     1          2.50607334         -0.15707184          4.61083812
     1          0.05016475         -2.53860181          1.48339075
     1         -0.04998349          2.53858874         -1.48342333
     1         -2.28467521         -2.71684968         -2.63380024
     1         -2.50617029          0.15720933         -4.61074105

 Electric dipole moment (dipole orientation):
 (Debye = 10**-18 statcoulomb cm , SI units = C m)
                  (au)            (Debye)         (10**-30 SI)
   Tot        0.000000D+00      0.000000D+00      0.000000D+00
   x          0.000000D+00      0.000000D+00      0.000000D+00
   y          0.000000D+00      0.000000D+00      0.000000D+00
   z          0.000000D+00      0.000000D+00      0.000000D+00

 Dipole polarizability, Alpha (dipole orientation).
 (esu units = cm**3 , SI units = C**2 m**2 J**-1)
 Alpha(0;0):
               (au)            (10**-24 esu)      (10**-40 SI)
   iso        0.440733D+02      0.653098D+01      0.726670D+01
   aniso      0.551296D+02      0.816937D+01      0.908965D+01
   xx         0.332620D+02      0.492892D+01      0.548416D+01
   yx         0.111281D+02      0.164902D+01      0.183478D+01
   yy         0.402048D+02      0.595774D+01      0.662888D+01
   zx         0.259380D+02      0.384362D+01      0.427661D+01
   zy         0.654241D+01      0.969486D+00      0.107870D+01
   zz         0.587530D+02      0.870629D+01      0.968706D+01

 ----------------------------------------------------------------------
 Unable to Open any file for archive entry.
 1\1\GINC-NODE643\Freq\RB3LYP\6-31G(d)\C4H6\JACKIE_LIJIAQI\28-Dec-2022\
 0\\#P Geom=AllCheck Guess=TCheck SCRF=Check GenChk RB3LYP/6-31G(d) Fre
 q\\$$$$Singlemol####0????\\0,1\C,1.8459855341,0.118516037,-0.000032277
 6\C,0.6098106522,-0.3984362274,-0.000056206\C,-0.6097905291,0.39844936
 37,0.0000344713\C,-1.845972393,-0.1184873055,0.0000909645\H,2.01151990
 54,1.1937510727,0.0000629826\H,2.7310497148,-0.510222051,-0.0001489912
 \H,0.4784442437,-1.4807523601,-0.0001893765\H,-0.4784106222,1.48076438
 02,0.0000984374\H,-2.0115186584,-1.193719649,0.0000528822\H,-2.7310218
 475,0.5102707395,0.0002351134\\Version=ES64L-G16RevC.01\State=1-A\HF=-
 156.0029331\RMSD=4.612e-09\RMSF=1.326e-04\ZeroPoint=0.0855184\Thermal=
 0.0901618\ETot=-155.9127713\HTot=-155.9118271\GTot=-155.9438583\Dipole
 =0.0000033,-0.000001,0.0000018\DipoleDeriv=-0.1334078,-0.040362,-0.000
 0124,0.0229893,0.1262145,0.0000419,-0.000055,0.0000389,-0.311703,0.134
 6815,0.0163375,0.0000042,-0.0875115,0.1096051,0.0000305,-0.0000097,0.0
 000278,-0.0720801,0.1346883,0.0163385,-0.0000107,-0.0875123,0.1096039,
 0.0000051,0.0000334,0.0000175,-0.0720814,-0.1334108,-0.0403607,-0.0000
 303,0.0229921,0.126216,0.0000311,-0.0000763,0.0000205,-0.3117033,0.042
 1823,0.0153487,0.000005,-0.0274907,-0.1081588,-0.0000257,0.0000096,-0.
 0000195,0.1387881,-0.0566953,0.050508,0.0000131,0.0789096,-0.0067842,-
 0.0000167,0.0000359,-0.0000168,0.1349761,0.0132364,-0.0418303,-0.00000
 27,0.0131038,-0.1208759,-0.0000251,0.0000011,-0.0000275,0.1100198,0.01
 32356,-0.0418333,0.0000026,0.0131023,-0.1208768,-0.0000127,0.0000026,-
 0.0000177,0.1100188,0.0421823,0.015347,0.0000113,-0.0274928,-0.1081567
 ,-0.000014,0.000023,-0.0000093,0.1387889,-0.0566923,0.0505066,0.000019
 9,0.07891,-0.006787,-0.0000145,0.0000353,-0.0000139,0.1349763\Polar=77
 .4678142,5.9975593,39.2386947,-0.0023038,0.001763,15.5132865\Quadrupol
 e=1.1988108,1.3748543,-2.5736651,0.0076222,-0.0003273,0.0003492\PG=C01
  [X(C4H6)]\NImag=0\\0.82620161,0.06414500,0.67298772,-0.00001886,0.000
 05914,0.10342392,-0.47104268,-0.15142682,-0.00000526,0.78831578,-0.161
 91801,-0.18678794,-0.00001044,0.10802863,0.68058733,-0.00000761,-0.000
 01063,-0.04892564,-0.00000309,0.00005832,0.13251740,-0.05260026,0.0110
 0160,0.00000284,-0.18694373,0.08089569,0.00000905,0.78832099,-0.006820
 33,0.01631746,0.00000093,0.08089621,-0.16942860,-0.00001081,0.10802737
 ,0.68058059,0.00000153,0.00000092,0.00608826,0.00000835,-0.00001065,-0
 .06503544,-0.00003297,0.00002653,0.13251778,0.00692545,0.00664985,0.00
 000047,-0.05259917,-0.00682024,0.00000287,-0.47104560,-0.16191393,0.00
 001970,0.82619909,0.00664971,-0.00280222,-0.00000046,0.01100202,0.0163
 1742,0.00000002,-0.15142222,-0.18678405,0.00000198,0.06414145,0.672991
 10,0.00000029,-0.00000047,0.00197031,0.00000320,0.00000133,0.00608818,
 0.00002340,0.00000260,-0.04892583,-0.00005953,0.00003201,0.10342343,-0
 .06511030,-0.03536800,-0.00000169,-0.00003962,-0.03147326,-0.00000305,
 0.00171144,-0.00195216,-0.00000049,-0.00006501,0.00025206,0.00000004,0
 .06175683,-0.03915748,-0.33228447,-0.00002721,-0.00126222,-0.01068171,
 -0.00000156,0.00221649,0.00096315,0.00000078,-0.00019184,0.00042422,0.
 00000003,0.04546707,0.35274721,-0.00000228,-0.00002627,-0.03398894,-0.
 00000010,-0.00000086,0.00471703,0.00000016,0.00000092,-0.00789404,0.00
 000011,-0.00000005,0.00015926,0.00000272,0.00003009,0.02260817,-0.2442
 1590,0.13463826,0.00002572,-0.01963015,0.02005501,0.00000292,-0.002434
 49,-0.00449785,0.00000028,-0.00073864,0.00137032,0.00000010,0.00649356
 ,-0.00425091,-0.00000064,0.25969086,0.13918426,-0.15985916,-0.00002055
 ,-0.01314456,0.01128441,0.00000100,-0.00190043,-0.00116030,-0.00000156
 ,-0.00034629,0.00082685,0.00000012,0.02342483,-0.01246679,-0.00000265,
 -0.14697884,0.15975956,0.00002742,-0.00002145,-0.03250436,-0.00000102,
 0.00000034,0.00431232,0.00000003,-0.00000126,0.01267676,-0.00000027,0.
 00000008,-0.00015598,0.00000204,-0.00000123,0.00216756,-0.00002792,0.0
 0002244,0.02211703,-0.00108301,-0.03231827,-0.00000344,-0.06155990,-0.
 02939971,-0.00000343,0.00422266,0.02708163,0.00000296,0.00172888,0.001
 05578,-0.00000026,-0.00464601,-0.00197219,0.00000003,0.00107805,0.0002
 5872,-0.00000009,0.06440338,-0.00035608,-0.00991762,-0.00000173,-0.030
 80166,-0.32429692,-0.00003413,-0.00360751,-0.01679643,-0.00000204,-0.0
 0118885,0.00109525,0.00000050,-0.00164758,0.00072554,-0.00000128,-0.00
 017739,0.00128063,0.00000103,0.03410267,0.34745438,0.,-0.00000108,0.00
 525916,-0.00000281,-0.00003572,-0.04145588,-0.00000130,-0.00000192,0.0
 0299916,-0.00000006,0.00000021,-0.00132596,0.00000034,-0.00000091,0.01
 140977,-0.00000044,0.00000100,-0.00718892,0.00000381,0.00003835,0.0270
 9372,0.00172877,0.00105602,0.00000006,0.00422241,0.02708174,0.00000212
 ,-0.06156048,-0.02940294,-0.00000144,-0.00108348,-0.03231832,-0.000001
 64,-0.00025909,-0.00098673,-0.00000008,0.00016940,-0.00039078,-0.00000
 003,-0.00405437,0.00256884,0.00000031,0.06440485,-0.00118897,0.0010952
 6,0.00000021,-0.00360747,-0.01679710,-0.00000155,-0.03080447,-0.324294
 83,-0.00001662,-0.00035621,-0.00991725,-0.00000093,0.00097616,0.000615
 76,0.00000011,0.00013137,0.00042617,-0.00000004,0.00256890,-0.00058667
 ,-0.00000013,0.03410563,0.34745241,-0.00000040,0.00000010,-0.00132599,
 0.00000029,-0.00000263,0.00299927,-0.00000151,-0.00001727,-0.04145610,
 0.00000054,0.00000107,0.00525914,0.00000008,0.00000007,0.00024643,0.,0
 .00000005,-0.00024145,0.00000044,-0.00000057,0.00320399,0.00000029,0.0
 0001898,0.02709388,-0.00006503,0.00025204,0.00000004,0.00171154,-0.001
 95201,-0.00000107,-0.00003999,-0.03147361,-0.00000122,-0.06511113,-0.0
 3537138,0.00000158,0.00012583,0.00022982,0.00000005,0.00003236,0.00009
 106,0.00000004,-0.00025907,0.00097616,0.00000018,-0.00464606,-0.001647
 55,0.00000118,0.06175760,-0.00019182,0.00042417,0.00000004,0.00221634,
 0.00096323,0.00000038,-0.00126232,-0.01068126,-0.00000075,-0.03916094,
 -0.33228571,-0.00001180,0.00022981,-0.00003116,0.,-0.00009202,-0.00001
 175,-0.00000002,-0.00098675,0.00061570,0.00000009,-0.00197211,0.000725
 60,-0.00000048,0.04547116,0.35274791,-0.00000002,0.00000003,0.00015925
 ,-0.00000049,0.00000076,-0.00789396,0.00000051,0.00000152,0.00471708,0
 .00000125,-0.00001088,-0.03398856,-0.00000002,-0.00000005,0.00030797,-
 0.00000002,-0.00000006,0.00026678,0.00000002,-0.00000021,0.00024643,0.
 00000093,-0.00000055,0.01140979,-0.00000146,0.00001278,0.02260789,-0.0
 0073867,0.00137032,0.00000013,-0.00243449,-0.00449782,0.00000129,-0.01
 963054,0.02005562,0.00000330,-0.24421039,0.13464057,0.00003282,0.00003
 236,-0.00009203,0.00000003,-0.00044506,-0.00019797,-0.00000019,0.00016
 938,0.00013139,-0.00000002,0.00107805,-0.00017739,-0.00000091,0.006493
 96,-0.00425134,-0.00000070,0.25968539,-0.00034627,0.00082680,0.0000000
 7,-0.00190046,-0.00116014,-0.00000104,-0.01314419,0.01128427,0.0000014
 1,0.13918700,-0.15986561,-0.00002338,0.00009106,-0.00001175,-0.0000000
 2,-0.00019796,-0.00007962,0.00000011,-0.00039078,0.00042614,0.00000011
 ,0.00025865,0.00128065,0.00000068,0.02342431,-0.01246673,-0.00000334,-
 0.14698136,0.15976600,-0.00000006,-0.00000028,-0.00015597,0.00000094,-
 0.00000046,0.01267674,-0.00000022,-0.00000124,0.00431237,0.00003493,-0
 .00002399,-0.03250398,0.00000003,-0.00000002,0.00026679,0.,0.00000020,
 -0.00144973,-0.00000003,0.00000010,-0.00024146,-0.00000052,0.00000052,
 -0.00718896,0.00000068,-0.00000024,0.00216734,-0.00003575,0.00002540,0
 .02211686\\-0.00029137,-0.00012045,0.00000255,0.00033787,-0.00014717,0
 .00000530,-0.00033776,0.00014685,-0.00000415,0.00028917,0.00011958,-0.
 00000250,0.00007085,0.00008026,-0.00000072,0.00009314,0.00005253,-0.00
 000174,-0.00007438,-0.00003035,-0.00000175,0.00007499,0.00003048,-0.00
 000010,-0.00007011,-0.00007998,0.00000051,-0.00009238,-0.00005174,0.00
 000259\\\@
 The archive entry for this job was punched.


 CHILDREN YOU ARE VERY LITTLE,
 AND YOUR BONES ARE VERY BRITTLE;
 IF YOU WOULD GROW GREAT AND STATELY
 YOU MUST TRY TO WALK SEDATELY.
 YOU MUST STILL BE BRIGHT AND QUIET,
 AND CONTENT WITH SIMPLE DIET;
 AND REMAIN, THROUGH ALL BEWILD'RING
 INNOCENT AND HONEST CHILDREN.
     -- A CHILD'S GARDEN OF VERSE,
        ROBERT LOUIS STEVENSON
 Job cpu time:       0 days  0 hours  2 minutes 16.2 seconds.
 Elapsed time:       0 days  0 hours  0 minutes  5.2 seconds.
 File lengths (MBytes):  RWF=     10 Int=      0 D2E=      0 Chk=      2 Scr=      1
 Normal termination of Gaussian 16 at Wed Dec 28 10:35:45 2022.
