 38
None
C -3.53100000 -0.38840000 0.84400000
C -2.52520000 0.46130000 0.06960000
C -2.41920000 1.84820000 0.45700000
C -3.12850000 0.53380000 -1.38180000
C -1.19480000 -0.27840000 -0.19550000
C -1.30880000 -1.56660000 -0.43920000
C -0.11270000 -2.39940000 -0.72530000
O -0.00750000 -3.59780000 -0.65540000
C 1.03900000 -1.43970000 -1.14460000
N 1.18950000 -0.48940000 -0.15900000
C 2.45790000 0.05710000 -0.02160000
C 3.34780000 -1.02640000 0.56270000
C 3.08640000 0.40320000 -1.36700000
C 2.55990000 1.27480000 0.82610000
C 0.09100000 0.49780000 -0.25490000
H -3.04500000 -1.20620000 1.39680000
H -4.41500000 -0.68270000 0.18510000
H -3.98540000 0.28840000 1.59950000
H -3.31970000 2.40390000 0.05230000
H -1.56410000 2.39150000 0.01460000
H -2.49740000 1.95890000 1.53940000
H -4.21670000 0.56650000 -1.31780000
H -2.91780000 -0.47950000 -1.82890000
H -2.71480000 1.31540000 -2.00450000
H -2.28680000 -2.08510000 -0.50690000
H 0.70730000 -0.94150000 -2.13380000
H 1.95100000 -2.00840000 -1.31110000
H 4.36150000 -1.08540000 0.09230000
H 2.90370000 -2.04730000 0.40050000
H 3.41740000 -0.92170000 1.67490000
H 2.74610000 -0.27400000 -2.15450000
H 2.94850000 1.46970000 -1.62950000
H 4.19750000 0.27200000 -1.28250000
H 2.15380000 1.19610000 1.85600000
H 3.64010000 1.57990000 0.93590000
H 2.09640000 2.17100000 0.26880000
H 0.13810000 1.22960000 -0.99390000
H 0.15760000 0.99880000 0.76300000
