 Entering Gaussian System, Link 0=g16
 Initial command:
 /public/software/apps/Gaussian/g16/l1.exe "/public/home/LJQ_HG/tmp/Gau-81756.inp" -scrdir="/public/home/LJQ_HG/tmp/"
 Entering Link 1 = /public/software/apps/Gaussian/g16/l1.exe PID=     81757.
  
 Copyright (c) 1988-2019, Gaussian, Inc.  All Rights Reserved.
  
 This is part of the Gaussian(R) 16 program.  It is based on
 the Gaussian(R) 09 system (copyright 2009, Gaussian, Inc.),
 the Gaussian(R) 03 system (copyright 2003, Gaussian, Inc.),
 the Gaussian(R) 98 system (copyright 1998, Gaussian, Inc.),
 the Gaussian(R) 94 system (copyright 1995, Gaussian, Inc.),
 the Gaussian 92(TM) system (copyright 1992, Gaussian, Inc.),
 the Gaussian 90(TM) system (copyright 1990, Gaussian, Inc.),
 the Gaussian 88(TM) system (copyright 1988, Gaussian, Inc.),
 the Gaussian 86(TM) system (copyright 1986, Carnegie Mellon
 University), and the Gaussian 82(TM) system (copyright 1983,
 Carnegie Mellon University). Gaussian is a federally registered
 trademark of Gaussian, Inc.
  
 This software contains proprietary and confidential information,
 including trade secrets, belonging to Gaussian, Inc.
  
 This software is provided under written license and may be
 used, copied, transmitted, or stored only in accord with that
 written license.
  
 The following legend is applicable only to US Government
 contracts under FAR:
  
                    RESTRICTED RIGHTS LEGEND
  
 Use, reproduction and disclosure by the US Government is
 subject to restrictions as set forth in subparagraphs (a)
 and (c) of the Commercial Computer Software - Restricted
 Rights clause in FAR 52.227-19.
  
 Gaussian, Inc.
 340 Quinnipiac St., Bldg. 40, Wallingford CT 06492
  
  
 ---------------------------------------------------------------
 Warning -- This program may not be used in any manner that
 competes with the business of Gaussian, Inc. or will provide
 assistance to any competitor of Gaussian, Inc.  The licensee
 of this program is prohibited from giving any competitor of
 Gaussian, Inc. access to this program.  By using this program,
 the user acknowledges that Gaussian, Inc. is engaged in the
 business of creating and licensing software in the field of
 computational chemistry and represents and warrants to the
 licensee that it is not a competitor of Gaussian, Inc. and that
 it will not use this program in any manner prohibited above.
 ---------------------------------------------------------------
  

 Cite this work as:
 Gaussian 16, Revision C.01,
 M. J. Frisch, G. W. Trucks, H. B. Schlegel, G. E. Scuseria, 
 M. A. Robb, J. R. Cheeseman, G. Scalmani, V. Barone, 
 G. A. Petersson, H. Nakatsuji, X. Li, M. Caricato, A. V. Marenich, 
 J. Bloino, B. G. Janesko, R. Gomperts, B. Mennucci, H. P. Hratchian, 
 J. V. Ortiz, A. F. Izmaylov, J. L. Sonnenberg, D. Williams-Young, 
 F. Ding, F. Lipparini, F. Egidi, J. Goings, B. Peng, A. Petrone, 
 T. Henderson, D. Ranasinghe, V. G. Zakrzewski, J. Gao, N. Rega, 
 G. Zheng, W. Liang, M. Hada, M. Ehara, K. Toyota, R. Fukuda, 
 J. Hasegawa, M. Ishida, T. Nakajima, Y. Honda, O. Kitao, H. Nakai, 
 T. Vreven, K. Throssell, J. A. Montgomery, Jr., J. E. Peralta, 
 F. Ogliaro, M. J. Bearpark, J. J. Heyd, E. N. Brothers, K. N. Kudin, 
 V. N. Staroverov, T. A. Keith, R. Kobayashi, J. Normand, 
 K. Raghavachari, A. P. Rendell, J. C. Burant, S. S. Iyengar, 
 J. Tomasi, M. Cossi, J. M. Millam, M. Klene, C. Adamo, R. Cammi, 
 J. W. Ochterski, R. L. Martin, K. Morokuma, O. Farkas, 
 J. B. Foresman, and D. J. Fox, Gaussian, Inc., Wallingford CT, 2019.
 
 ******************************************
 Gaussian 16:  ES64L-G16RevC.01  3-Jul-2019
                 7-Dec-2023 
 ******************************************
 %nprocshared=32
 Will use up to   32 processors via shared memory.
 %mem=100GB
 ---------------------------------
 #p opt freq b3lyp/6-31g* em=gd3bj
 ---------------------------------
 1/18=20,19=15,26=3,38=1/1,3;
 2/9=110,12=2,17=6,18=5,40=1/2;
 3/5=1,6=6,7=1,11=2,25=1,30=1,71=1,74=-5,124=41/1,2,3;
 4//1;
 5/5=2,38=5/2;
 6/7=2,8=2,9=2,10=2,28=1/1;
 7//1,2,3,16;
 1/18=20,19=15,26=3/3(2);
 2/9=110/2;
 99//99;
 2/9=110/2;
 3/5=1,6=6,7=1,11=2,25=1,30=1,71=1,74=-5,124=41/1,2,3;
 4/5=5,16=3,69=1/1;
 5/5=2,38=5/2;
 7//1,2,3,16;
 1/18=20,19=15,26=3/3(-5);
 2/9=110/2;
 6/7=2,8=2,9=2,10=2,19=2,28=1/1;
 99/9=1/99;
 Leave Link    1 at Thu Dec  7 02:04:49 2023, MaxMem= 13421772800 cpu:               1.4 elap:               0.0
 (Enter /public/software/apps/Gaussian/g16/l101.exe)
 ----------------------
 $$$$Singlemol####0????
 ----------------------
 Symbolic Z-matrix:
 Charge =  0 Multiplicity = 1
 C                     0.8042    0.9966    0.1518 
 C                    -0.5173    1.059    -0.0642 
 C                    -1.0777   -0.3279   -0.1836 
 C                     0.15     -1.1708    0.0016 
 C                     1.2167   -0.3816    0.1925 
 H                     1.4723    1.835     0.2781 
 H                    -1.1003    1.964    -0.1422 
 H                    -1.8161   -0.5258    0.5987 
 H                    -1.5257   -0.4911   -1.168 
 H                     0.1608   -2.2499   -0.0178 
 H                     2.2331   -0.7074    0.3532 
 
 ITRead=  0  0  0  0  0  0  0  0  0  0  0
 MicOpt= -1 -1 -1 -1 -1 -1 -1 -1 -1 -1 -1
 NAtoms=     11 NQM=       11 NQMF=       0 NMMI=      0 NMMIF=      0
                NMic=       0 NMicF=      0.
                    Isotopes and Nuclear Properties:
 (Nuclear quadrupole moments (NQMom) in fm**2, nuclear magnetic moments (NMagM)
  in nuclear magnetons)

  Atom         1           2           3           4           5           6           7           8           9          10
 IAtWgt=          12          12          12          12          12           1           1           1           1           1
 AtmWgt=  12.0000000  12.0000000  12.0000000  12.0000000  12.0000000   1.0078250   1.0078250   1.0078250   1.0078250   1.0078250
 NucSpn=           0           0           0           0           0           1           1           1           1           1
 AtZEff=  -0.0000000  -0.0000000  -0.0000000  -0.0000000  -0.0000000  -0.0000000  -0.0000000  -0.0000000  -0.0000000  -0.0000000
 NQMom=    0.0000000   0.0000000   0.0000000   0.0000000   0.0000000   0.0000000   0.0000000   0.0000000   0.0000000   0.0000000
 NMagM=    0.0000000   0.0000000   0.0000000   0.0000000   0.0000000   2.7928460   2.7928460   2.7928460   2.7928460   2.7928460
 AtZNuc=   6.0000000   6.0000000   6.0000000   6.0000000   6.0000000   1.0000000   1.0000000   1.0000000   1.0000000   1.0000000

  Atom        11
 IAtWgt=           1
 AtmWgt=   1.0078250
 NucSpn=           1
 AtZEff=  -0.0000000
 NQMom=    0.0000000
 NMagM=    2.7928460
 AtZNuc=   1.0000000
 Leave Link  101 at Thu Dec  7 02:04:49 2023, MaxMem= 13421772800 cpu:               5.4 elap:               0.2
 (Enter /public/software/apps/Gaussian/g16/l103.exe)

 GradGradGradGradGradGradGradGradGradGradGradGradGradGradGradGradGradGrad
 Berny optimization.
 Initialization pass.
                           ----------------------------
                           !    Initial Parameters    !
                           ! (Angstroms and Degrees)  !
 --------------------------                            --------------------------
 ! Name  Definition              Value          Derivative Info.                !
 --------------------------------------------------------------------------------
 ! R1    R(1,2)                  1.3405         estimate D2E/DX2                !
 ! R2    R(1,5)                  1.4392         estimate D2E/DX2                !
 ! R3    R(1,6)                  1.0795         estimate D2E/DX2                !
 ! R4    R(2,3)                  1.5006         estimate D2E/DX2                !
 ! R5    R(2,7)                  1.0794         estimate D2E/DX2                !
 ! R6    R(3,4)                  1.5007         estimate D2E/DX2                !
 ! R7    R(3,8)                  1.0938         estimate D2E/DX2                !
 ! R8    R(3,9)                  1.0938         estimate D2E/DX2                !
 ! R9    R(4,5)                  1.3406         estimate D2E/DX2                !
 ! R10   R(4,10)                 1.0793         estimate D2E/DX2                !
 ! R11   R(5,11)                 1.0794         estimate D2E/DX2                !
 ! A1    A(2,1,5)              109.3717         estimate D2E/DX2                !
 ! A2    A(2,1,6)              126.3598         estimate D2E/DX2                !
 ! A3    A(5,1,6)              124.2685         estimate D2E/DX2                !
 ! A4    A(1,2,3)              109.7526         estimate D2E/DX2                !
 ! A5    A(1,2,7)              125.6733         estimate D2E/DX2                !
 ! A6    A(3,2,7)              124.5741         estimate D2E/DX2                !
 ! A7    A(2,3,4)              101.7583         estimate D2E/DX2                !
 ! A8    A(2,3,8)              111.249          estimate D2E/DX2                !
 ! A9    A(2,3,9)              111.252          estimate D2E/DX2                !
 ! A10   A(4,3,8)              111.2471         estimate D2E/DX2                !
 ! A11   A(4,3,9)              111.2441         estimate D2E/DX2                !
 ! A12   A(8,3,9)              109.8883         estimate D2E/DX2                !
 ! A13   A(3,4,5)              109.7475         estimate D2E/DX2                !
 ! A14   A(3,4,10)             124.5781         estimate D2E/DX2                !
 ! A15   A(5,4,10)             125.6744         estimate D2E/DX2                !
 ! A16   A(1,5,4)              109.3699         estimate D2E/DX2                !
 ! A17   A(1,5,11)             124.2748         estimate D2E/DX2                !
 ! A18   A(4,5,11)             126.3553         estimate D2E/DX2                !
 ! D1    D(5,1,2,3)             -0.0002         estimate D2E/DX2                !
 ! D2    D(5,1,2,7)            179.9978         estimate D2E/DX2                !
 ! D3    D(6,1,2,3)            179.9991         estimate D2E/DX2                !
 ! D4    D(6,1,2,7)             -0.0029         estimate D2E/DX2                !
 ! D5    D(2,1,5,4)              0.0015         estimate D2E/DX2                !
 ! D6    D(2,1,5,11)          -179.9979         estimate D2E/DX2                !
 ! D7    D(6,1,5,4)           -179.9977         estimate D2E/DX2                !
 ! D8    D(6,1,5,11)             0.0028         estimate D2E/DX2                !
 ! D9    D(1,2,3,4)             -0.0011         estimate D2E/DX2                !
 ! D10   D(1,2,3,8)            118.5604         estimate D2E/DX2                !
 ! D11   D(1,2,3,9)           -118.5604         estimate D2E/DX2                !
 ! D12   D(7,2,3,4)           -179.9991         estimate D2E/DX2                !
 ! D13   D(7,2,3,8)            -61.4376         estimate D2E/DX2                !
 ! D14   D(7,2,3,9)             61.4415         estimate D2E/DX2                !
 ! D15   D(2,3,4,5)              0.002          estimate D2E/DX2                !
 ! D16   D(2,3,4,10)           179.9962         estimate D2E/DX2                !
 ! D17   D(8,3,4,5)           -118.5607         estimate D2E/DX2                !
 ! D18   D(8,3,4,10)            61.4334         estimate D2E/DX2                !
 ! D19   D(9,3,4,5)            118.567          estimate D2E/DX2                !
 ! D20   D(9,3,4,10)           -61.4388         estimate D2E/DX2                !
 ! D21   D(3,4,5,1)             -0.0022         estimate D2E/DX2                !
 ! D22   D(3,4,5,11)           179.9972         estimate D2E/DX2                !
 ! D23   D(10,4,5,1)          -179.9963         estimate D2E/DX2                !
 ! D24   D(10,4,5,11)            0.0031         estimate D2E/DX2                !
 --------------------------------------------------------------------------------
 Trust Radius=3.00D-01 FncErr=1.00D-07 GrdErr=1.00D-06 EigMax=2.50D+02 EigMin=1.00D-04
 Number of steps in this run=     63 maximum allowed number of steps=    100.
 GradGradGradGradGradGradGradGradGradGradGradGradGradGradGradGradGradGrad

 Leave Link  103 at Thu Dec  7 02:04:49 2023, MaxMem= 13421772800 cpu:               0.1 elap:               0.0
 (Enter /public/software/apps/Gaussian/g16/l202.exe)
                          Input orientation:                          
 ---------------------------------------------------------------------
 Center     Atomic      Atomic             Coordinates (Angstroms)
 Number     Number       Type             X           Y           Z
 ---------------------------------------------------------------------
      1          6           0        0.804200    0.996600    0.151800
      2          6           0       -0.517300    1.059000   -0.064200
      3          6           0       -1.077700   -0.327900   -0.183600
      4          6           0        0.150000   -1.170800    0.001600
      5          6           0        1.216700   -0.381600    0.192500
      6          1           0        1.472300    1.835000    0.278100
      7          1           0       -1.100300    1.964000   -0.142200
      8          1           0       -1.816100   -0.525800    0.598700
      9          1           0       -1.525700   -0.491100   -1.168000
     10          1           0        0.160800   -2.249900   -0.017800
     11          1           0        2.233100   -0.707400    0.353200
 ---------------------------------------------------------------------
                    Distance matrix (angstroms):
                    1          2          3          4          5
     1  C    0.000000
     2  C    1.340489   0.000000
     3  C    2.325584   1.500599   0.000000
     4  C    2.268956   2.328439   1.500675   0.000000
     5  C    1.439183   2.268916   2.325641   1.340570   0.000000
     6  H    1.079455   2.162835   3.375471   3.295415   2.232930
     7  H    2.156251   1.079351   2.292385   3.378002   3.313963
     8  H    3.063233   2.153580   1.093797   2.153625   3.063277
     9  H    3.063259   2.153614   1.093792   2.153585   3.063284
    10  H    3.313984   3.377986   2.292478   1.079328   2.156315
    11  H    2.232920   3.295314   3.375436   2.162792   1.079370
                    6          7          8          9         10
     6  H    0.000000
     7  H    2.609897   0.000000
     8  H    4.060756   2.694514   0.000000
     9  H    4.060782   2.694577   1.790744   0.000000
    10  H    4.300465   4.400318   2.694574   2.694554   0.000000
    11  H    2.654855   4.300390   4.060698   4.060716   2.609861
                   11
    11  H    0.000000
 Stoichiometry    C5H6
 Framework group  C1[X(C5H6)]
 Deg. of freedom    27
 Full point group                 C1      NOp   1
 Largest Abelian subgroup         C1      NOp   1
 Largest concise Abelian subgroup C1      NOp   1
                         Standard orientation:                         
 ---------------------------------------------------------------------
 Center     Atomic      Atomic             Coordinates (Angstroms)
 Number     Number       Type             X           Y           Z
 ---------------------------------------------------------------------
      1          6           0       -0.985441   -0.719550   -0.000004
      2          6           0        0.279150   -1.164210   -0.000004
      3          6           0        1.226057   -0.000095    0.000003
      4          6           0        0.279286    1.164229   -0.000020
      5          6           0       -0.985413    0.719633    0.000007
      6          1           0       -1.877524   -1.327343   -0.000023
      7          1           0        0.582096   -2.200174    0.000022
      8          1           0        1.854292   -0.000118    0.895388
      9          1           0        1.854319   -0.000061   -0.895356
     10          1           0        0.582318    2.200145    0.000036
     11          1           0       -1.877333    1.327511    0.000041
 ---------------------------------------------------------------------
 Rotational constants (GHZ):           8.4893192           8.4395756           4.3499154
 Leave Link  202 at Thu Dec  7 02:04:49 2023, MaxMem= 13421772800 cpu:               1.3 elap:               0.1
 (Enter /public/software/apps/Gaussian/g16/l301.exe)
 Standard basis: 6-31G(d) (6D, 7F)
 Ernie: Thresh=  0.10000D-02 Tol=  0.10000D-05 Strict=F.
 There are    87 symmetry adapted cartesian basis functions of A   symmetry.
 There are    87 symmetry adapted basis functions of A   symmetry.
    87 basis functions,   164 primitive gaussians,    87 cartesian basis functions
    18 alpha electrons       18 beta electrons
       nuclear repulsion energy       157.6936698078 Hartrees.
 IExCor=  402 DFT=T Ex+Corr=B3LYP ExCW=0 ScaHFX=  0.200000
 ScaDFX=  0.800000  0.720000  1.000000  0.810000 ScalE2=  1.000000  1.000000
 IRadAn=      5 IRanWt=     -1 IRanGd=            0 ICorTp=0 IEmpDi=141
 NAtoms=   11 NActive=   11 NUniq=   11 SFac= 1.00D+00 NAtFMM=   60 NAOKFM=F Big=F
 Integral buffers will be    131072 words long.
 Raffenetti 2 integral format.
 Two-electron integral symmetry is turned on.
 R6Disp:  Grimme-D3(BJ) Dispersion energy=       -0.0148930228 Hartrees.
 Nuclear repulsion after empirical dispersion term =      157.6787767850 Hartrees.
 Leave Link  301 at Thu Dec  7 02:04:49 2023, MaxMem= 13421772800 cpu:               0.5 elap:               0.0
 (Enter /public/software/apps/Gaussian/g16/l302.exe)
 NPDir=0 NMtPBC=     1 NCelOv=     1 NCel=       1 NClECP=     1 NCelD=      1
         NCelK=      1 NCelE2=     1 NClLst=     1 CellRange=     0.0.
 One-electron integrals computed using PRISM.
 One-electron integral symmetry used in STVInt
 NBasis=    87 RedAO= T EigKep=  1.57D-03  NBF=    87
 NBsUse=    87 1.00D-06 EigRej= -1.00D+00 NBFU=    87
 Precomputing XC quadrature grid using
 IXCGrd= 4 IRadAn=           5 IRanWt=          -1 IRanGd=           0 AccXCQ= 0.00D+00.
 Generated NRdTot=       0 NPtTot=           0 NUsed=           0 NTot=          32
 NSgBfM=    87    87    87    87    87 MxSgAt=    11 MxSgA2=    11.
 Leave Link  302 at Thu Dec  7 02:04:49 2023, MaxMem= 13421772800 cpu:               7.4 elap:               0.3
 (Enter /public/software/apps/Gaussian/g16/l303.exe)
 DipDrv:  MaxL=1.
 Leave Link  303 at Thu Dec  7 02:04:50 2023, MaxMem= 13421772800 cpu:               0.3 elap:               0.0
 (Enter /public/software/apps/Gaussian/g16/l401.exe)
 ExpMin= 1.61D-01 ExpMax= 3.05D+03 ExpMxC= 4.57D+02 IAcc=3 IRadAn=         5 AccDes= 0.00D+00
 Harris functional with IExCor=  402 and IRadAn=       5 diagonalized for initial guess.
 HarFok:  IExCor=  402 AccDes= 0.00D+00 IRadAn=         5 IDoV= 1 UseB2=F ITyADJ=14
 ICtDFT=  3500011 ScaDFX=  1.000000  1.000000  1.000000  1.000000
 FoFCou: FMM=F IPFlag=           0 FMFlag=      100000 FMFlg1=           0
         NFxFlg=           0 DoJE=T BraDBF=F KetDBF=T FulRan=T
         wScrn=  0.000000 ICntrl=       500 IOpCl=  0 I1Cent=   200000004 NGrid=           0
         NMat0=    1 NMatS0=      1 NMatT0=    0 NMatD0=    1 NMtDS0=    0 NMtDT0=    0
 Petite list used in FoFCou.
 Harris En= -194.155535179669    
 JPrj=0 DoOrth=F DoCkMO=F.
 Leave Link  401 at Thu Dec  7 02:04:50 2023, MaxMem= 13421772800 cpu:               5.8 elap:               0.2
 (Enter /public/software/apps/Gaussian/g16/l502.exe)
 Keep R1 ints in memory in canonical form, NReq=36454127.
 FoFCou: FMM=F IPFlag=           0 FMFlag=           0 FMFlg1=           0
         NFxFlg=           0 DoJE=F BraDBF=F KetDBF=F FulRan=T
         wScrn=  0.000000 ICntrl=       600 IOpCl=  0 I1Cent=           0 NGrid=           0
         NMat0=    1 NMatS0=   3828 NMatT0=    0 NMatD0=    1 NMtDS0=    0 NMtDT0=    0
 Symmetry not used in FoFCou.
 Two-electron integral symmetry not used.
 Closed shell SCF:
 Using DIIS extrapolation, IDIIS=  1040.
 NGot= 13421772800 LenX= 13414424771 LenY= 13414416761
 Requested convergence on RMS density matrix=1.00D-08 within 128 cycles.
 Requested convergence on MAX density matrix=1.00D-06.
 Requested convergence on             energy=1.00D-06.
 No special actions if energy rises.
 Integral accuracy reduced to 1.0D-05 until final iterations.

 Cycle   1  Pass 0  IDiag  1:
 E= -193.952867792117    
 DIIS: error= 4.98D-02 at cycle   1 NSaved=   1.
 NSaved= 1 IEnMin= 1 EnMin= -193.952867792117     IErMin= 1 ErrMin= 4.98D-02
 ErrMax= 4.98D-02  0.00D+00 EMaxC= 1.00D-01 BMatC= 1.42D-01 BMatP= 1.42D-01
 IDIUse=3 WtCom= 5.02D-01 WtEn= 4.98D-01
 Coeff-Com:  0.100D+01
 Coeff-En:   0.100D+01
 Coeff:      0.100D+01
 Gap=     0.190 Goal=   None    Shift=    0.000
 GapD=    0.190 DampG=1.000 DampE=0.500 DampFc=0.5000 IDamp=-1.
 Damping current iteration by 5.00D-01
 RMSDP=1.08D-02 MaxDP=1.36D-01              OVMax= 1.76D-01

 Cycle   2  Pass 0  IDiag  1:
 E= -194.025428250494     Delta-E=       -0.072560458376 Rises=F Damp=T
 DIIS: error= 8.60D-03 at cycle   2 NSaved=   2.
 NSaved= 2 IEnMin= 2 EnMin= -194.025428250494     IErMin= 2 ErrMin= 8.60D-03
 ErrMax= 8.60D-03  0.00D+00 EMaxC= 1.00D-01 BMatC= 6.77D-03 BMatP= 1.42D-01
 IDIUse=3 WtCom= 9.14D-01 WtEn= 8.60D-02
 Coeff-Com:  0.543D-01 0.946D+00
 Coeff-En:   0.925D-01 0.908D+00
 Coeff:      0.576D-01 0.942D+00
 Gap=     0.202 Goal=   None    Shift=    0.000
 RMSDP=2.81D-03 MaxDP=2.66D-02 DE=-7.26D-02 OVMax= 1.03D-01

 Cycle   3  Pass 0  IDiag  1:
 E= -194.113318837221     Delta-E=       -0.087890586727 Rises=F Damp=F
 DIIS: error= 3.89D-03 at cycle   3 NSaved=   3.
 NSaved= 3 IEnMin= 3 EnMin= -194.113318837221     IErMin= 3 ErrMin= 3.89D-03
 ErrMax= 3.89D-03  0.00D+00 EMaxC= 1.00D-01 BMatC= 1.08D-03 BMatP= 6.77D-03
 IDIUse=3 WtCom= 9.61D-01 WtEn= 3.89D-02
 Coeff-Com: -0.197D-01 0.239D+00 0.781D+00
 Coeff-En:   0.000D+00 0.000D+00 0.100D+01
 Coeff:     -0.190D-01 0.230D+00 0.789D+00
 Gap=     0.201 Goal=   None    Shift=    0.000
 RMSDP=6.17D-04 MaxDP=6.48D-03 DE=-8.79D-02 OVMax= 1.78D-02

 Cycle   4  Pass 0  IDiag  1:
 E= -194.113919831946     Delta-E=       -0.000600994725 Rises=F Damp=F
 DIIS: error= 2.94D-03 at cycle   4 NSaved=   4.
 NSaved= 4 IEnMin= 4 EnMin= -194.113919831946     IErMin= 4 ErrMin= 2.94D-03
 ErrMax= 2.94D-03  0.00D+00 EMaxC= 1.00D-01 BMatC= 4.11D-04 BMatP= 1.08D-03
 IDIUse=3 WtCom= 9.71D-01 WtEn= 2.94D-02
 Coeff-Com: -0.130D-01 0.860D-01 0.425D+00 0.502D+00
 Coeff-En:   0.000D+00 0.000D+00 0.261D+00 0.739D+00
 Coeff:     -0.126D-01 0.835D-01 0.420D+00 0.509D+00
 Gap=     0.201 Goal=   None    Shift=    0.000
 RMSDP=3.21D-04 MaxDP=5.00D-03 DE=-6.01D-04 OVMax= 1.16D-02

 Cycle   5  Pass 0  IDiag  1:
 E= -194.114262576218     Delta-E=       -0.000342744272 Rises=F Damp=F
 DIIS: error= 1.22D-03 at cycle   5 NSaved=   5.
 NSaved= 5 IEnMin= 5 EnMin= -194.114262576218     IErMin= 5 ErrMin= 1.22D-03
 ErrMax= 1.22D-03  0.00D+00 EMaxC= 1.00D-01 BMatC= 8.47D-05 BMatP= 4.11D-04
 IDIUse=3 WtCom= 9.88D-01 WtEn= 1.22D-02
 Coeff-Com: -0.441D-02 0.779D-02 0.110D+00 0.328D+00 0.559D+00
 Coeff-En:   0.000D+00 0.000D+00 0.000D+00 0.205D+00 0.795D+00
 Coeff:     -0.436D-02 0.770D-02 0.108D+00 0.327D+00 0.562D+00
 Gap=     0.201 Goal=   None    Shift=    0.000
 RMSDP=1.08D-04 MaxDP=1.79D-03 DE=-3.43D-04 OVMax= 3.72D-03

 Cycle   6  Pass 0  IDiag  1:
 E= -194.114350937718     Delta-E=       -0.000088361500 Rises=F Damp=F
 DIIS: error= 8.78D-05 at cycle   6 NSaved=   6.
 NSaved= 6 IEnMin= 6 EnMin= -194.114350937718     IErMin= 6 ErrMin= 8.78D-05
 ErrMax= 8.78D-05  0.00D+00 EMaxC= 1.00D-01 BMatC= 5.09D-07 BMatP= 8.47D-05
 IDIUse=1 WtCom= 1.00D+00 WtEn= 0.00D+00
 Coeff-Com: -0.177D-02 0.248D-02 0.429D-01 0.137D+00 0.249D+00 0.571D+00
 Coeff:     -0.177D-02 0.248D-02 0.429D-01 0.137D+00 0.249D+00 0.571D+00
 Gap=     0.201 Goal=   None    Shift=    0.000
 RMSDP=9.95D-06 MaxDP=1.93D-04 DE=-8.84D-05 OVMax= 2.31D-04

 Initial convergence to 1.0D-05 achieved.  Increase integral accuracy.
 Cycle   7  Pass 1  IDiag  1:
 E= -194.114358724136     Delta-E=       -0.000007786418 Rises=F Damp=F
 DIIS: error= 2.23D-05 at cycle   1 NSaved=   1.
 NSaved= 1 IEnMin= 1 EnMin= -194.114358724136     IErMin= 1 ErrMin= 2.23D-05
 ErrMax= 2.23D-05  0.00D+00 EMaxC= 1.00D-01 BMatC= 3.13D-08 BMatP= 3.13D-08
 IDIUse=1 WtCom= 1.00D+00 WtEn= 0.00D+00
 Coeff-Com:  0.100D+01
 Coeff:      0.100D+01
 Gap=     0.201 Goal=   None    Shift=    0.000
 RMSDP=9.95D-06 MaxDP=1.93D-04 DE=-7.79D-06 OVMax= 9.79D-05

 Cycle   8  Pass 1  IDiag  1:
 E= -194.114358718570     Delta-E=        0.000000005567 Rises=F Damp=F
 DIIS: error= 2.33D-05 at cycle   2 NSaved=   2.
 NSaved= 2 IEnMin= 1 EnMin= -194.114358724136     IErMin= 1 ErrMin= 2.23D-05
 ErrMax= 2.33D-05  0.00D+00 EMaxC= 1.00D-01 BMatC= 3.83D-08 BMatP= 3.13D-08
 IDIUse=1 WtCom= 1.00D+00 WtEn= 0.00D+00
 Coeff-Com:  0.526D+00 0.474D+00
 Coeff:      0.526D+00 0.474D+00
 Gap=     0.201 Goal=   None    Shift=    0.000
 RMSDP=2.19D-06 MaxDP=4.77D-05 DE= 5.57D-09 OVMax= 5.63D-05

 Cycle   9  Pass 1  IDiag  1:
 E= -194.114358755018     Delta-E=       -0.000000036448 Rises=F Damp=F
 DIIS: error= 1.71D-06 at cycle   3 NSaved=   3.
 NSaved= 3 IEnMin= 3 EnMin= -194.114358755018     IErMin= 3 ErrMin= 1.71D-06
 ErrMax= 1.71D-06  0.00D+00 EMaxC= 1.00D-01 BMatC= 2.58D-10 BMatP= 3.13D-08
 IDIUse=1 WtCom= 1.00D+00 WtEn= 0.00D+00
 Coeff-Com:  0.906D-01 0.114D+00 0.795D+00
 Coeff:      0.906D-01 0.114D+00 0.795D+00
 Gap=     0.201 Goal=   None    Shift=    0.000
 RMSDP=3.69D-07 MaxDP=5.98D-06 DE=-3.64D-08 OVMax= 1.35D-05

 Cycle  10  Pass 1  IDiag  1:
 E= -194.114358754968     Delta-E=        0.000000000050 Rises=F Damp=F
 DIIS: error= 2.53D-06 at cycle   4 NSaved=   4.
 NSaved= 4 IEnMin= 3 EnMin= -194.114358755018     IErMin= 3 ErrMin= 1.71D-06
 ErrMax= 2.53D-06  0.00D+00 EMaxC= 1.00D-01 BMatC= 3.11D-10 BMatP= 2.58D-10
 IDIUse=1 WtCom= 1.00D+00 WtEn= 0.00D+00
 Coeff-Com:  0.385D-02 0.268D-01 0.551D+00 0.419D+00
 Coeff:      0.385D-02 0.268D-01 0.551D+00 0.419D+00
 Gap=     0.201 Goal=   None    Shift=    0.000
 RMSDP=2.06D-07 MaxDP=3.27D-06 DE= 4.99D-11 OVMax= 7.69D-06

 Cycle  11  Pass 1  IDiag  1:
 E= -194.114358755292     Delta-E=       -0.000000000324 Rises=F Damp=F
 DIIS: error= 2.24D-07 at cycle   5 NSaved=   5.
 NSaved= 5 IEnMin= 5 EnMin= -194.114358755292     IErMin= 5 ErrMin= 2.24D-07
 ErrMax= 2.24D-07  0.00D+00 EMaxC= 1.00D-01 BMatC= 2.15D-12 BMatP= 2.58D-10
 IDIUse=1 WtCom= 1.00D+00 WtEn= 0.00D+00
 Coeff-Com: -0.576D-02 0.399D-03 0.129D+00 0.136D+00 0.740D+00
 Coeff:     -0.576D-02 0.399D-03 0.129D+00 0.136D+00 0.740D+00
 Gap=     0.201 Goal=   None    Shift=    0.000
 RMSDP=2.27D-08 MaxDP=2.77D-07 DE=-3.24D-10 OVMax= 8.24D-07

 Cycle  12  Pass 1  IDiag  1:
 E= -194.114358755294     Delta-E=       -0.000000000002 Rises=F Damp=F
 DIIS: error= 4.27D-08 at cycle   6 NSaved=   6.
 NSaved= 6 IEnMin= 6 EnMin= -194.114358755294     IErMin= 6 ErrMin= 4.27D-08
 ErrMax= 4.27D-08  0.00D+00 EMaxC= 1.00D-01 BMatC= 1.75D-13 BMatP= 2.15D-12
 IDIUse=1 WtCom= 1.00D+00 WtEn= 0.00D+00
 Coeff-Com: -0.231D-02-0.668D-03 0.337D-01 0.399D-01 0.328D+00 0.601D+00
 Coeff:     -0.231D-02-0.668D-03 0.337D-01 0.399D-01 0.328D+00 0.601D+00
 Gap=     0.201 Goal=   None    Shift=    0.000
 RMSDP=7.28D-09 MaxDP=7.33D-08 DE=-1.65D-12 OVMax= 1.08D-07

 SCF Done:  E(RB3LYP) =  -194.114358755     A.U. after   12 cycles
            NFock= 12  Conv=0.73D-08     -V/T= 2.0091
 KE= 1.923591971709D+02 PE=-7.645974662936D+02 EE= 2.204451335825D+02
 Leave Link  502 at Thu Dec  7 02:04:50 2023, MaxMem= 13421772800 cpu:              16.2 elap:               0.6
 (Enter /public/software/apps/Gaussian/g16/l601.exe)
 Copying SCF densities to generalized density rwf, IOpCl= 0 IROHF=0.

 **********************************************************************

            Population analysis using the SCF Density.

 **********************************************************************

 Orbital symmetries:
       Occupied  (A) (A) (A) (A) (A) (A) (A) (A) (A) (A) (A) (A)
                 (A) (A) (A) (A) (A) (A)
       Virtual   (A) (A) (A) (A) (A) (A) (A) (A) (A) (A) (A) (A)
                 (A) (A) (A) (A) (A) (A) (A) (A) (A) (A) (A) (A)
                 (A) (A) (A) (A) (A) (A) (A) (A) (A) (A) (A) (A)
                 (A) (A) (A) (A) (A) (A) (A) (A) (A) (A) (A) (A)
                 (A) (A) (A) (A) (A) (A) (A) (A) (A) (A) (A) (A)
                 (A) (A) (A) (A) (A) (A) (A) (A) (A)
 The electronic state is 1-A.
 Alpha  occ. eigenvalues --  -10.18639 -10.17478 -10.17471 -10.17386 -10.17354
 Alpha  occ. eigenvalues --   -0.85361  -0.70140  -0.69723  -0.54783  -0.52255
 Alpha  occ. eigenvalues --   -0.50989  -0.43811  -0.38962  -0.36798  -0.35529
 Alpha  occ. eigenvalues --   -0.35189  -0.29854  -0.20995
 Alpha virt. eigenvalues --   -0.00889   0.09594   0.11489   0.14436   0.17066
 Alpha virt. eigenvalues --    0.17560   0.17946   0.18039   0.21358   0.24175
 Alpha virt. eigenvalues --    0.34076   0.35660   0.45424   0.54750   0.55089
 Alpha virt. eigenvalues --    0.57790   0.59408   0.60117   0.61129   0.63306
 Alpha virt. eigenvalues --    0.65528   0.66799   0.68912   0.74433   0.74798
 Alpha virt. eigenvalues --    0.81064   0.85869   0.86177   0.86547   0.88567
 Alpha virt. eigenvalues --    0.92040   0.93138   0.93941   1.04688   1.15953
 Alpha virt. eigenvalues --    1.18118   1.27770   1.38954   1.40036   1.46278
 Alpha virt. eigenvalues --    1.46971   1.47806   1.55086   1.69640   1.86447
 Alpha virt. eigenvalues --    1.87688   1.96026   1.99589   2.03102   2.07539
 Alpha virt. eigenvalues --    2.10464   2.19107   2.26091   2.28800   2.31653
 Alpha virt. eigenvalues --    2.38438   2.49649   2.52436   2.60044   2.64630
 Alpha virt. eigenvalues --    2.71527   2.81566   2.96122   3.03130   4.10967
 Alpha virt. eigenvalues --    4.16270   4.18666   4.47118   4.49452
          Condensed to atoms (all electrons):
               1          2          3          4          5          6
     1  C    4.828067   0.664076  -0.071476  -0.032943   0.438358   0.363348
     2  C    0.664076   4.965228   0.382280  -0.106816  -0.032943  -0.054709
     3  C   -0.071476   0.382280   5.104959   0.382270  -0.071483   0.009022
     4  C   -0.032943  -0.106816   0.382270   4.965303   0.664041   0.005889
     5  C    0.438358  -0.032943  -0.071483   0.664041   4.828124  -0.050289
     6  H    0.363348  -0.054709   0.009022   0.005889  -0.050289   0.611178
     7  H   -0.040607   0.364207  -0.050641   0.005051   0.006539  -0.004688
     8  H    0.000534  -0.025813   0.350757  -0.025811   0.000535  -0.000192
     9  H    0.000534  -0.025812   0.350757  -0.025815   0.000536  -0.000192
    10  H    0.006539   0.005051  -0.050633   0.364205  -0.040606  -0.000183
    11  H   -0.050289   0.005889   0.009022  -0.054714   0.363353  -0.002472
               7          8          9         10         11
     1  C   -0.040607   0.000534   0.000534   0.006539  -0.050289
     2  C    0.364207  -0.025813  -0.025812   0.005051   0.005889
     3  C   -0.050641   0.350757   0.350757  -0.050633   0.009022
     4  C    0.005051  -0.025811  -0.025815   0.364205  -0.054714
     5  C    0.006539   0.000535   0.000536  -0.040606   0.363353
     6  H   -0.004688  -0.000192  -0.000192  -0.000183  -0.002472
     7  H    0.594090   0.000374   0.000374  -0.000107  -0.000183
     8  H    0.000374   0.558375  -0.029281   0.000374  -0.000192
     9  H    0.000374  -0.029281   0.558378   0.000374  -0.000192
    10  H   -0.000107   0.000374   0.000374   0.594077  -0.004687
    11  H   -0.000183  -0.000192  -0.000192  -0.004687   0.611173
 Mulliken charges:
               1
     1  C   -0.106141
     2  C   -0.140640
     3  C   -0.344836
     4  C   -0.140661
     5  C   -0.106165
     6  H    0.123289
     7  H    0.125590
     8  H    0.170340
     9  H    0.170338
    10  H    0.125595
    11  H    0.123291
 Sum of Mulliken charges =  -0.00000
 Mulliken charges with hydrogens summed into heavy atoms:
               1
     1  C    0.017147
     2  C   -0.015050
     3  C   -0.004157
     4  C   -0.015066
     5  C    0.017126
 Electronic spatial extent (au):  <R**2>=            327.3444
 Charge=             -0.0000 electrons
 Dipole moment (field-independent basis, Debye):
    X=              0.4026    Y=              0.0000    Z=              0.0001  Tot=              0.4026
 Quadrupole moment (field-independent basis, Debye-Ang):
   XX=            -26.9740   YY=            -28.4591   ZZ=            -31.8232
   XY=             -0.0000   XZ=              0.0000   YZ=              0.0000
 Traceless Quadrupole moment (field-independent basis, Debye-Ang):
   XX=              2.1114   YY=              0.6263   ZZ=             -2.7378
   XY=             -0.0000   XZ=              0.0000   YZ=              0.0000
 Octapole moment (field-independent basis, Debye-Ang**2):
  XXX=             -2.1311  YYY=              0.0009  ZZZ=              0.0002  XYY=              0.0031
  XXY=              0.0003  XXZ=              0.0001  XZZ=              2.4674  YZZ=             -0.0002
  YYZ=              0.0003  XYZ=             -0.0002
 Hexadecapole moment (field-independent basis, Debye-Ang**3):
 XXXX=           -194.4635 YYYY=           -188.5767 ZZZZ=            -39.5401 XXXY=              0.0003
 XXXZ=             -0.0001 YYYX=             -0.0001 YYYZ=              0.0004 ZZZX=              0.0001
 ZZZY=              0.0000 XXYY=            -63.8295 XXZZ=            -39.3062 YYZZ=            -44.6774
 XXYZ=              0.0000 YYXZ=              0.0001 ZZXY=             -0.0004
 N-N= 1.576787767850D+02 E-N=-7.645974728796D+02  KE= 1.923591971709D+02
 No NMR shielding tensors so no spin-rotation constants.
 Leave Link  601 at Thu Dec  7 02:04:50 2023, MaxMem= 13421772800 cpu:               1.8 elap:               0.1
 (Enter /public/software/apps/Gaussian/g16/l701.exe)
 ... and contract with generalized density number  0.
 Compute integral first derivatives.
 R6Disp: Adding Grimme-D3(BJ) dispersion energy 1st derivatives to the gradient.
 Leave Link  701 at Thu Dec  7 02:04:50 2023, MaxMem= 13421772800 cpu:               2.2 elap:               0.1
 (Enter /public/software/apps/Gaussian/g16/l702.exe)
 L702 exits ... SP integral derivatives will be done elsewhere.
 Leave Link  702 at Thu Dec  7 02:04:51 2023, MaxMem= 13421772800 cpu:               0.7 elap:               0.0
 (Enter /public/software/apps/Gaussian/g16/l703.exe)
 Integral derivatives from FoFJK, PRISM(SPDF).
 Compute integral first derivatives, UseDBF=F ICtDFT=           0.
 Calling FoFJK, ICntrl=      2127 FMM=F ISym2X=0 I1Cent= 0 IOpClX= 0 NMat=1 NMatS=1 NMatT=0.
 FoFJK:  IHMeth= 1 ICntrl=    2127 DoSepK=F KAlg= 0 I1Cent=           0 FoldK=F
 IRaf=         0 NMat=       1 IRICut=       1 DoRegI=T DoRafI=F ISym2E= 0 IDoP0=0 IntGTp=1.
 FoFCou: FMM=F IPFlag=           0 FMFlag=      100000 FMFlg1=         800
         NFxFlg=           0 DoJE=F BraDBF=F KetDBF=F FulRan=T
         wScrn=  0.000000 ICntrl=      2127 IOpCl=  0 I1Cent=           0 NGrid=           0
         NMat0=    1 NMatS0=      1 NMatT0=    0 NMatD0=    1 NMtDS0=    0 NMtDT0=    0
 Symmetry not used in FoFCou.
 Leave Link  703 at Thu Dec  7 02:04:51 2023, MaxMem= 13421772800 cpu:               8.1 elap:               0.3
 (Enter /public/software/apps/Gaussian/g16/l716.exe)
 Dipole        = 1.58381453D-01 6.03896102D-06 3.29682307D-05
 ***** Axes restored to original set *****
 -------------------------------------------------------------------
 Center     Atomic                   Forces (Hartrees/Bohr)
 Number     Number              X              Y              Z
 -------------------------------------------------------------------
      1        6           0.002083179    0.013824383    0.000613954
      2        6          -0.008383134    0.009006794   -0.001201491
      3        6           0.010004928    0.003001962    0.001703023
      4        6          -0.002000718   -0.012078540   -0.000556846
      5        6           0.009189538   -0.010406210    0.001303605
      6        1           0.001909880    0.003749180    0.000389028
      7        1          -0.003390141    0.001997807   -0.000519416
      8        1          -0.005701764   -0.001733238   -0.000918508
      9        1          -0.005688817   -0.001725663   -0.001024180
     10        1          -0.001730186   -0.003569095   -0.000356768
     11        1           0.003707233   -0.002067380    0.000567598
 -------------------------------------------------------------------
 Cartesian Forces:  Max     0.013824383 RMS     0.005353786
 Leave Link  716 at Thu Dec  7 02:04:51 2023, MaxMem= 13421772800 cpu:               1.1 elap:               0.1
 (Enter /public/software/apps/Gaussian/g16/l103.exe)

 GradGradGradGradGradGradGradGradGradGradGradGradGradGradGradGradGradGrad
 Berny optimization.
 FormGI is forming the generalized inverse of G from B-inverse, IUseBI=4.
 Internal  Forces:  Max     0.021096083 RMS     0.004315800
 Search for a local minimum.
 Step number   1 out of a maximum of   63
 All quantities printed in internal units (Hartrees-Bohrs-Radians)
 RMS Force = .43158D-02 SwitMx=.10000D-02 MixMth= 1
 Mixed Optimization -- RFO/linear search
 Second derivative matrix not updated -- first step.
 ITU=  0
     Eigenvalues ---    0.01025   0.01450   0.01651   0.02070   0.02151
     Eigenvalues ---    0.02463   0.05683   0.07345   0.08302   0.09497
     Eigenvalues ---    0.16000   0.16000   0.16000   0.16000   0.21945
     Eigenvalues ---    0.22000   0.30885   0.31405   0.34377   0.34378
     Eigenvalues ---    0.36060   0.36071   0.36073   0.36076   0.38307
     Eigenvalues ---    0.51845   0.56478
 RFO step:  Lambda=-3.12942382D-03 EMin= 1.02537481D-02
 Linear search not attempted -- first point.
 Iteration  1 RMS(Cart)=  0.01844631 RMS(Int)=  0.00019284
 Iteration  2 RMS(Cart)=  0.00016858 RMS(Int)=  0.00012430
 Iteration  3 RMS(Cart)=  0.00000001 RMS(Int)=  0.00012430
 ITry= 1 IFail=0 DXMaxC= 4.73D-02 DCOld= 1.00D+10 DXMaxT= 3.00D-01 DXLimC= 3.00D+00 Rises=F
 Variable       Old X    -DE/DX   Delta X   Delta X   Delta X     New X
                                 (Linear)    (Quad)   (Total)
    R1        2.53316   0.01027   0.00000   0.01881   0.01877   2.55193
    R2        2.71966   0.02110   0.00000   0.05668   0.05656   2.77623
    R3        2.03987   0.00414   0.00000   0.01138   0.01138   2.05126
    R4        2.83572   0.00708   0.00000   0.01794   0.01803   2.85375
    R5        2.03968   0.00354   0.00000   0.00974   0.00974   2.04942
    R6        2.83587   0.00705   0.00000   0.01785   0.01794   2.85380
    R7        2.06698   0.00351   0.00000   0.01011   0.01011   2.07708
    R8        2.06697   0.00351   0.00000   0.01012   0.01012   2.07708
    R9        2.53331   0.01019   0.00000   0.01866   0.01863   2.55194
   R10        2.03964   0.00356   0.00000   0.00978   0.00978   2.04941
   R11        2.03971   0.00420   0.00000   0.01154   0.01154   2.05126
    A1        1.90890  -0.00087   0.00000   0.00238   0.00233   1.91123
    A2        2.20539  -0.00043   0.00000  -0.00650  -0.00647   2.19892
    A3        2.16889   0.00130   0.00000   0.00411   0.00414   2.17303
    A4        1.91554  -0.00272   0.00000  -0.01718  -0.01705   1.89850
    A5        2.19341   0.00318   0.00000   0.01977   0.01970   2.21311
    A6        2.17423  -0.00046   0.00000  -0.00259  -0.00265   2.17158
    A7        1.77602   0.00714   0.00000   0.02949   0.02933   1.80535
    A8        1.94166  -0.00097   0.00000   0.00645   0.00607   1.94773
    A9        1.94171  -0.00098   0.00000   0.00641   0.00603   1.94775
   A10        1.94163  -0.00098   0.00000   0.00645   0.00608   1.94770
   A11        1.94158  -0.00097   0.00000   0.00651   0.00613   1.94771
   A12        1.91791  -0.00264   0.00000  -0.04873  -0.04866   1.86925
   A13        1.91546  -0.00269   0.00000  -0.01710  -0.01697   1.89849
   A14        2.17430  -0.00048   0.00000  -0.00264  -0.00270   2.17159
   A15        2.19343   0.00317   0.00000   0.01974   0.01968   2.21311
   A16        1.90887  -0.00086   0.00000   0.00240   0.00235   1.91122
   A17        2.16900   0.00129   0.00000   0.00404   0.00407   2.17307
   A18        2.20532  -0.00043   0.00000  -0.00645  -0.00642   2.19889
    D1       -0.00000  -0.00000   0.00000   0.00002   0.00002   0.00001
    D2        3.14155  -0.00000   0.00000   0.00004   0.00004   3.14159
    D3        3.14158   0.00000   0.00000   0.00000   0.00000   3.14158
    D4       -0.00005   0.00000   0.00000   0.00002   0.00002  -0.00003
    D5        0.00003  -0.00000   0.00000  -0.00005  -0.00005  -0.00003
    D6       -3.14156  -0.00000   0.00000  -0.00005  -0.00005   3.14158
    D7       -3.14155  -0.00000   0.00000  -0.00004  -0.00004   3.14159
    D8        0.00005  -0.00000   0.00000  -0.00003  -0.00003   0.00002
    D9       -0.00002   0.00000   0.00000   0.00002   0.00002   0.00000
   D10        2.06927   0.00240   0.00000   0.02681   0.02695   2.09621
   D11       -2.06927  -0.00240   0.00000  -0.02682  -0.02695  -2.09622
   D12       -3.14158   0.00000   0.00000   0.00000   0.00000  -3.14158
   D13       -1.07229   0.00240   0.00000   0.02679   0.02692  -1.04537
   D14        1.07236  -0.00240   0.00000  -0.02684  -0.02697   1.04539
   D15        0.00004  -0.00000   0.00000  -0.00005  -0.00005  -0.00002
   D16        3.14153   0.00000   0.00000   0.00005   0.00005   3.14157
   D17       -2.06928  -0.00240   0.00000  -0.02684  -0.02697  -2.09625
   D18        1.07222  -0.00240   0.00000  -0.02674  -0.02687   1.04534
   D19        2.06938   0.00240   0.00000   0.02671   0.02684   2.09623
   D20       -1.07231   0.00240   0.00000   0.02681   0.02694  -1.04537
   D21       -0.00004   0.00000   0.00000   0.00007   0.00007   0.00003
   D22        3.14154   0.00000   0.00000   0.00006   0.00006  -3.14158
   D23       -3.14153  -0.00000   0.00000  -0.00003  -0.00003  -3.14156
   D24        0.00005  -0.00000   0.00000  -0.00004  -0.00004   0.00001
         Item               Value     Threshold  Converged?
 Maximum Force            0.021096     0.000450     NO 
 RMS     Force            0.004316     0.000300     NO 
 Maximum Displacement     0.047272     0.001800     NO 
 RMS     Displacement     0.018410     0.001200     NO 
 Predicted change in Energy=-1.596255D-03
 Lowest energy point so far.  Saving SCF results.
 GradGradGradGradGradGradGradGradGradGradGradGradGradGradGradGradGradGrad

 Leave Link  103 at Thu Dec  7 02:04:51 2023, MaxMem= 13421772800 cpu:               0.8 elap:               0.0
 (Enter /public/software/apps/Gaussian/g16/l202.exe)
                          Input orientation:                          
 ---------------------------------------------------------------------
 Center     Atomic      Atomic             Coordinates (Angstroms)
 Number     Number       Type             X           Y           Z
 ---------------------------------------------------------------------
      1          6           0        0.809163    1.013741    0.152965
      2          6           0       -0.521987    1.079782   -0.064558
      3          6           0       -1.065627   -0.324246   -0.181542
      4          6           0        0.157499   -1.190676    0.002485
      5          6           0        1.230212   -0.393133    0.194489
      6          1           0        1.477552    1.859622    0.279465
      7          1           0       -1.123210    1.978724   -0.145698
      8          1           0       -1.825606   -0.529047    0.585666
      9          1           0       -1.538841   -0.494745   -1.158844
     10          1           0        0.149793   -2.274915   -0.020088
     11          1           0        2.251051   -0.725008    0.355760
 ---------------------------------------------------------------------
                    Distance matrix (angstroms):
                    1          2          3          4          5
     1  C    0.000000
     2  C    1.350421   0.000000
     3  C    2.327433   1.510141   0.000000
     4  C    2.303641   2.370901   1.510167   0.000000
     5  C    1.469115   2.303646   2.327450   1.350427   0.000000
     6  H    1.085478   2.173628   3.383721   3.335203   2.267885
     7  H    2.180472   1.084505   2.303969   3.421589   3.358575
     8  H    3.083737   2.170379   1.099145   2.170383   3.083751
     9  H    3.083747   2.170389   1.099145   2.170386   3.083746
    10  H    3.358567   3.421587   2.304001   1.084502   2.180471
    11  H    2.267910   3.335217   3.383734   2.173617   1.085478
                    6          7          8          9         10
     6  H    0.000000
     7  H    2.637975   0.000000
     8  H    4.087830   2.705027   0.000000
     9  H    4.087837   2.705045   1.768255   0.000000
    10  H    4.352824   4.441820   2.705032   2.705042   0.000000
    11  H    2.698970   4.352846   4.087835   4.087827   2.637946
                   11
    11  H    0.000000
 Stoichiometry    C5H6
 Framework group  C1[X(C5H6)]
 Deg. of freedom    27
 Full point group                 C1      NOp   1
 RotChk:  IX=1 Diff= 2.00D+00
 Largest Abelian subgroup         C1      NOp   1
 Largest concise Abelian subgroup C1      NOp   1
                         Standard orientation:                         
 ---------------------------------------------------------------------
 Center     Atomic      Atomic             Coordinates (Angstroms)
 Number     Number       Type             X           Y           Z
 ---------------------------------------------------------------------
      1          6           0        0.733991   -0.990715    0.000007
      2          6           0        1.185610    0.281951   -0.000001
      3          6           0        0.000709    1.218185   -0.000005
      4          6           0       -1.185291    0.283302    0.000007
      5          6           0       -0.735124   -0.989885   -0.000008
      6          1           0        1.348394   -1.885573    0.000001
      7          1           0        2.221253    0.603810    0.000007
      8          1           0        0.001070    1.871208    0.884122
      9          1           0        0.001058    1.871208   -0.884133
     10          1           0       -2.220566    0.606335    0.000026
     11          1           0       -1.350576   -1.884022   -0.000014
 ---------------------------------------------------------------------
 Rotational constants (GHZ):           8.4550729           8.1690314           4.2652941
 Leave Link  202 at Thu Dec  7 02:04:51 2023, MaxMem= 13421772800 cpu:               0.2 elap:               0.0
 (Enter /public/software/apps/Gaussian/g16/l301.exe)
 Standard basis: 6-31G(d) (6D, 7F)
 Ernie: Thresh=  0.10000D-02 Tol=  0.10000D-05 Strict=F.
 There are    87 symmetry adapted cartesian basis functions of A   symmetry.
 There are    87 symmetry adapted basis functions of A   symmetry.
    87 basis functions,   164 primitive gaussians,    87 cartesian basis functions
    18 alpha electrons       18 beta electrons
       nuclear repulsion energy       156.2846036923 Hartrees.
 IExCor=  402 DFT=T Ex+Corr=B3LYP ExCW=0 ScaHFX=  0.200000
 ScaDFX=  0.800000  0.720000  1.000000  0.810000 ScalE2=  1.000000  1.000000
 IRadAn=      5 IRanWt=     -1 IRanGd=            0 ICorTp=0 IEmpDi=141
 NAtoms=   11 NActive=   11 NUniq=   11 SFac= 1.00D+00 NAtFMM=   60 NAOKFM=F Big=F
 Integral buffers will be    131072 words long.
 Raffenetti 2 integral format.
 Two-electron integral symmetry is turned on.
 R6Disp:  Grimme-D3(BJ) Dispersion energy=       -0.0148616450 Hartrees.
 Nuclear repulsion after empirical dispersion term =      156.2697420474 Hartrees.
 Leave Link  301 at Thu Dec  7 02:04:51 2023, MaxMem= 13421772800 cpu:               1.3 elap:               0.1
 (Enter /public/software/apps/Gaussian/g16/l302.exe)
 NPDir=0 NMtPBC=     1 NCelOv=     1 NCel=       1 NClECP=     1 NCelD=      1
         NCelK=      1 NCelE2=     1 NClLst=     1 CellRange=     0.0.
 One-electron integrals computed using PRISM.
 One-electron integral symmetry used in STVInt
 NBasis=    87 RedAO= T EigKep=  1.69D-03  NBF=    87
 NBsUse=    87 1.00D-06 EigRej= -1.00D+00 NBFU=    87
 Precomputing XC quadrature grid using
 IXCGrd= 4 IRadAn=           5 IRanWt=          -1 IRanGd=           0 AccXCQ= 0.00D+00.
 Generated NRdTot=       0 NPtTot=           0 NUsed=           0 NTot=          32
 NSgBfM=    87    87    87    87    87 MxSgAt=    11 MxSgA2=    11.
 Leave Link  302 at Thu Dec  7 02:04:51 2023, MaxMem= 13421772800 cpu:               2.3 elap:               0.1
 (Enter /public/software/apps/Gaussian/g16/l303.exe)
 DipDrv:  MaxL=1.
 Leave Link  303 at Thu Dec  7 02:04:51 2023, MaxMem= 13421772800 cpu:               0.3 elap:               0.0
 (Enter /public/software/apps/Gaussian/g16/l401.exe)
 Initial guess from the checkpoint file:  "/public/home/LJQ_HG/tmp/Gau-81757.chk"
 B after Tr=    -0.000000    0.000000    0.000000
         Rot=    0.707291    0.000001    0.000000   -0.706922 Ang=  89.97 deg.
 Guess basis will be translated and rotated to current coordinates.
 JPrj=2 DoOrth=T DoCkMO=T.
 Generating alternative initial guess.
 ExpMin= 1.61D-01 ExpMax= 3.05D+03 ExpMxC= 4.57D+02 IAcc=3 IRadAn=         5 AccDes= 0.00D+00
 Harris functional with IExCor=  402 and IRadAn=       5 diagonalized for initial guess.
 HarFok:  IExCor=  402 AccDes= 0.00D+00 IRadAn=         5 IDoV= 1 UseB2=F ITyADJ=14
 ICtDFT=  3500011 ScaDFX=  1.000000  1.000000  1.000000  1.000000
 FoFCou: FMM=F IPFlag=           0 FMFlag=      100000 FMFlg1=           0
         NFxFlg=           0 DoJE=T BraDBF=F KetDBF=T FulRan=T
         wScrn=  0.000000 ICntrl=       500 IOpCl=  0 I1Cent=   200000004 NGrid=           0
         NMat0=    1 NMatS0=      1 NMatT0=    0 NMatD0=    1 NMtDS0=    0 NMtDT0=    0
 Petite list used in FoFCou.
 Harris En= -194.149428418751    
 Leave Link  401 at Thu Dec  7 02:04:51 2023, MaxMem= 13421772800 cpu:               4.4 elap:               0.2
 (Enter /public/software/apps/Gaussian/g16/l502.exe)
 Keep R1 ints in memory in canonical form, NReq=36454127.
 FoFCou: FMM=F IPFlag=           0 FMFlag=           0 FMFlg1=           0
         NFxFlg=           0 DoJE=F BraDBF=F KetDBF=F FulRan=T
         wScrn=  0.000000 ICntrl=       600 IOpCl=  0 I1Cent=           0 NGrid=           0
         NMat0=    1 NMatS0=   3828 NMatT0=    0 NMatD0=    1 NMtDS0=    0 NMtDT0=    0
 Symmetry not used in FoFCou.
 Two-electron integral symmetry not used.
 Closed shell SCF:
 Using DIIS extrapolation, IDIIS=  1040.
 NGot= 13421772800 LenX= 13414424771 LenY= 13414416761
 Requested convergence on RMS density matrix=1.00D-08 within 128 cycles.
 Requested convergence on MAX density matrix=1.00D-06.
 Requested convergence on             energy=1.00D-06.
 No special actions if energy rises.
 Integral accuracy reduced to 1.0D-05 until final iterations.

 Cycle   1  Pass 0  IDiag  1:
 E= -194.115364963100    
 DIIS: error= 1.41D-03 at cycle   1 NSaved=   1.
 NSaved= 1 IEnMin= 1 EnMin= -194.115364963100     IErMin= 1 ErrMin= 1.41D-03
 ErrMax= 1.41D-03  0.00D+00 EMaxC= 1.00D-01 BMatC= 3.21D-04 BMatP= 3.21D-04
 IDIUse=3 WtCom= 9.86D-01 WtEn= 1.41D-02
 Coeff-Com:  0.100D+01
 Coeff-En:   0.100D+01
 Coeff:      0.100D+01
 Gap=     1.880 Goal=   None    Shift=    0.000
 GapD=    1.880 DampG=2.000 DampE=1.000 DampFc=2.0000 IDamp=-1.
 RMSDP=3.86D-04 MaxDP=4.31D-03              OVMax= 7.37D-03

 Cycle   2  Pass 0  IDiag  1:
 E= -194.115735120223     Delta-E=       -0.000370157124 Rises=F Damp=F
 DIIS: error= 1.04D-03 at cycle   2 NSaved=   2.
 NSaved= 2 IEnMin= 2 EnMin= -194.115735120223     IErMin= 2 ErrMin= 1.04D-03
 ErrMax= 1.04D-03  0.00D+00 EMaxC= 1.00D-01 BMatC= 8.80D-05 BMatP= 3.21D-04
 IDIUse=3 WtCom= 9.90D-01 WtEn= 1.04D-02
 Coeff-Com:  0.286D+00 0.714D+00
 Coeff-En:   0.000D+00 0.100D+01
 Coeff:      0.283D+00 0.717D+00
 Gap=     0.202 Goal=   None    Shift=    0.000
 RMSDP=2.00D-04 MaxDP=2.82D-03 DE=-3.70D-04 OVMax= 4.84D-03

 Cycle   3  Pass 0  IDiag  1:
 E= -194.115775987169     Delta-E=       -0.000040866945 Rises=F Damp=F
 DIIS: error= 7.87D-04 at cycle   3 NSaved=   3.
 NSaved= 3 IEnMin= 3 EnMin= -194.115775987169     IErMin= 3 ErrMin= 7.87D-04
 ErrMax= 7.87D-04  0.00D+00 EMaxC= 1.00D-01 BMatC= 4.67D-05 BMatP= 8.80D-05
 IDIUse=3 WtCom= 9.92D-01 WtEn= 7.87D-03
 Coeff-Com:  0.863D-02 0.419D+00 0.573D+00
 Coeff-En:   0.000D+00 0.368D+00 0.632D+00
 Coeff:      0.856D-02 0.418D+00 0.573D+00
 Gap=     0.202 Goal=   None    Shift=    0.000
 RMSDP=1.00D-04 MaxDP=1.64D-03 DE=-4.09D-05 OVMax= 3.57D-03

 Cycle   4  Pass 0  IDiag  1:
 E= -194.115819577252     Delta-E=       -0.000043590083 Rises=F Damp=F
 DIIS: error= 3.47D-04 at cycle   4 NSaved=   4.
 NSaved= 4 IEnMin= 4 EnMin= -194.115819577252     IErMin= 4 ErrMin= 3.47D-04
 ErrMax= 3.47D-04  0.00D+00 EMaxC= 1.00D-01 BMatC= 6.37D-06 BMatP= 4.67D-05
 IDIUse=3 WtCom= 9.97D-01 WtEn= 3.47D-03
 Coeff-Com: -0.105D-01 0.229D+00 0.378D+00 0.404D+00
 Coeff-En:   0.000D+00 0.000D+00 0.565D-01 0.944D+00
 Coeff:     -0.104D-01 0.228D+00 0.376D+00 0.406D+00
 Gap=     0.202 Goal=   None    Shift=    0.000
 RMSDP=2.97D-05 MaxDP=4.67D-04 DE=-4.36D-05 OVMax= 1.03D-03

 Cycle   5  Pass 0  IDiag  1:
 E= -194.115826383576     Delta-E=       -0.000006806324 Rises=F Damp=F
 DIIS: error= 2.09D-05 at cycle   5 NSaved=   5.
 NSaved= 5 IEnMin= 5 EnMin= -194.115826383576     IErMin= 5 ErrMin= 2.09D-05
 ErrMax= 2.09D-05  0.00D+00 EMaxC= 1.00D-01 BMatC= 3.57D-08 BMatP= 6.37D-06
 IDIUse=1 WtCom= 1.00D+00 WtEn= 0.00D+00
 Coeff-Com: -0.328D-02 0.264D-01 0.618D-01 0.100D+00 0.815D+00
 Coeff:     -0.328D-02 0.264D-01 0.618D-01 0.100D+00 0.815D+00
 Gap=     0.202 Goal=   None    Shift=    0.000
 RMSDP=2.84D-06 MaxDP=3.45D-05 DE=-6.81D-06 OVMax= 4.83D-05

 Initial convergence to 1.0D-05 achieved.  Increase integral accuracy.
 Cycle   6  Pass 1  IDiag  1:
 E= -194.115832020499     Delta-E=       -0.000005636923 Rises=F Damp=F
 DIIS: error= 8.44D-06 at cycle   1 NSaved=   1.
 NSaved= 1 IEnMin= 1 EnMin= -194.115832020499     IErMin= 1 ErrMin= 8.44D-06
 ErrMax= 8.44D-06  0.00D+00 EMaxC= 1.00D-01 BMatC= 4.19D-09 BMatP= 4.19D-09
 IDIUse=1 WtCom= 1.00D+00 WtEn= 0.00D+00
 Coeff-Com:  0.100D+01
 Coeff:      0.100D+01
 Gap=     0.202 Goal=   None    Shift=    0.000
 RMSDP=2.84D-06 MaxDP=3.45D-05 DE=-5.64D-06 OVMax= 2.61D-05

 Cycle   7  Pass 1  IDiag  1:
 E= -194.115832023301     Delta-E=       -0.000000002802 Rises=F Damp=F
 DIIS: error= 5.01D-06 at cycle   2 NSaved=   2.
 NSaved= 2 IEnMin= 2 EnMin= -194.115832023301     IErMin= 2 ErrMin= 5.01D-06
 ErrMax= 5.01D-06  0.00D+00 EMaxC= 1.00D-01 BMatC= 2.63D-09 BMatP= 4.19D-09
 IDIUse=1 WtCom= 1.00D+00 WtEn= 0.00D+00
 Coeff-Com:  0.429D+00 0.571D+00
 Coeff:      0.429D+00 0.571D+00
 Gap=     0.202 Goal=   None    Shift=    0.000
 RMSDP=7.01D-07 MaxDP=1.38D-05 DE=-2.80D-09 OVMax= 1.70D-05

 Cycle   8  Pass 1  IDiag  1:
 E= -194.115832025680     Delta-E=       -0.000000002379 Rises=F Damp=F
 DIIS: error= 1.74D-06 at cycle   3 NSaved=   3.
 NSaved= 3 IEnMin= 3 EnMin= -194.115832025680     IErMin= 3 ErrMin= 1.74D-06
 ErrMax= 1.74D-06  0.00D+00 EMaxC= 1.00D-01 BMatC= 1.84D-10 BMatP= 2.63D-09
 IDIUse=1 WtCom= 1.00D+00 WtEn= 0.00D+00
 Coeff-Com: -0.469D-02 0.202D+00 0.803D+00
 Coeff:     -0.469D-02 0.202D+00 0.803D+00
 Gap=     0.202 Goal=   None    Shift=    0.000
 RMSDP=2.02D-07 MaxDP=3.00D-06 DE=-2.38D-09 OVMax= 4.99D-06

 Cycle   9  Pass 1  IDiag  1:
 E= -194.115832025831     Delta-E=       -0.000000000151 Rises=F Damp=F
 DIIS: error= 8.16D-07 at cycle   4 NSaved=   4.
 NSaved= 4 IEnMin= 4 EnMin= -194.115832025831     IErMin= 4 ErrMin= 8.16D-07
 ErrMax= 8.16D-07  0.00D+00 EMaxC= 1.00D-01 BMatC= 3.30D-11 BMatP= 1.84D-10
 IDIUse=1 WtCom= 1.00D+00 WtEn= 0.00D+00
 Coeff-Com: -0.133D-01 0.116D+00 0.513D+00 0.384D+00
 Coeff:     -0.133D-01 0.116D+00 0.513D+00 0.384D+00
 Gap=     0.202 Goal=   None    Shift=    0.000
 RMSDP=7.24D-08 MaxDP=1.28D-06 DE=-1.51D-10 OVMax= 2.68D-06

 Cycle  10  Pass 1  IDiag  1:
 E= -194.115832025867     Delta-E=       -0.000000000036 Rises=F Damp=F
 DIIS: error= 1.02D-07 at cycle   5 NSaved=   5.
 NSaved= 5 IEnMin= 5 EnMin= -194.115832025867     IErMin= 5 ErrMin= 1.02D-07
 ErrMax= 1.02D-07  0.00D+00 EMaxC= 1.00D-01 BMatC= 7.44D-13 BMatP= 3.30D-11
 IDIUse=1 WtCom= 1.00D+00 WtEn= 0.00D+00
 Coeff-Com: -0.495D-02 0.254D-01 0.121D+00 0.164D+00 0.694D+00
 Coeff:     -0.495D-02 0.254D-01 0.121D+00 0.164D+00 0.694D+00
 Gap=     0.202 Goal=   None    Shift=    0.000
 RMSDP=1.03D-08 MaxDP=1.77D-07 DE=-3.58D-11 OVMax= 3.30D-07

 Cycle  11  Pass 1  IDiag  1:
 E= -194.115832025867     Delta-E=        0.000000000000 Rises=F Damp=F
 DIIS: error= 2.62D-08 at cycle   6 NSaved=   6.
 NSaved= 6 IEnMin= 5 EnMin= -194.115832025867     IErMin= 6 ErrMin= 2.62D-08
 ErrMax= 2.62D-08  0.00D+00 EMaxC= 1.00D-01 BMatC= 4.62D-14 BMatP= 7.44D-13
 IDIUse=1 WtCom= 1.00D+00 WtEn= 0.00D+00
 Coeff-Com: -0.167D-02 0.622D-02 0.311D-01 0.575D-01 0.288D+00 0.619D+00
 Coeff:     -0.167D-02 0.622D-02 0.311D-01 0.575D-01 0.288D+00 0.619D+00
 Gap=     0.202 Goal=   None    Shift=    0.000
 RMSDP=3.35D-09 MaxDP=4.16D-08 DE= 3.98D-13 OVMax= 6.28D-08

 SCF Done:  E(RB3LYP) =  -194.115832026     A.U. after   11 cycles
            NFock= 11  Conv=0.34D-08     -V/T= 2.0102
 KE= 1.921554063255D+02 PE=-7.616148438433D+02 EE= 2.190738634445D+02
 Leave Link  502 at Thu Dec  7 02:04:52 2023, MaxMem= 13421772800 cpu:              18.5 elap:               0.6
 (Enter /public/software/apps/Gaussian/g16/l701.exe)
 ... and contract with generalized density number  0.
 Compute integral first derivatives.
 R6Disp: Adding Grimme-D3(BJ) dispersion energy 1st derivatives to the gradient.
 Leave Link  701 at Thu Dec  7 02:04:52 2023, MaxMem= 13421772800 cpu:               2.3 elap:               0.1
 (Enter /public/software/apps/Gaussian/g16/l702.exe)
 L702 exits ... SP integral derivatives will be done elsewhere.
 Leave Link  702 at Thu Dec  7 02:04:52 2023, MaxMem= 13421772800 cpu:               0.2 elap:               0.0
 (Enter /public/software/apps/Gaussian/g16/l703.exe)
 Integral derivatives from FoFJK, PRISM(SPDF).
 Compute integral first derivatives, UseDBF=F ICtDFT=           0.
 Calling FoFJK, ICntrl=      2127 FMM=F ISym2X=0 I1Cent= 0 IOpClX= 0 NMat=1 NMatS=1 NMatT=0.
 FoFJK:  IHMeth= 1 ICntrl=    2127 DoSepK=F KAlg= 0 I1Cent=           0 FoldK=F
 IRaf=         0 NMat=       1 IRICut=       1 DoRegI=T DoRafI=F ISym2E= 0 IDoP0=0 IntGTp=1.
 FoFCou: FMM=F IPFlag=           0 FMFlag=      100000 FMFlg1=         800
         NFxFlg=           0 DoJE=F BraDBF=F KetDBF=F FulRan=T
         wScrn=  0.000000 ICntrl=      2127 IOpCl=  0 I1Cent=           0 NGrid=           0
         NMat0=    1 NMatS0=      1 NMatT0=    0 NMatD0=    1 NMtDS0=    0 NMtDT0=    0
 Symmetry not used in FoFCou.
 Leave Link  703 at Thu Dec  7 02:04:52 2023, MaxMem= 13421772800 cpu:               7.9 elap:               0.3
 (Enter /public/software/apps/Gaussian/g16/l716.exe)
 Dipole        = 8.93094995D-05 1.67887995D-01 5.11410389D-07
 ***** Axes restored to original set *****
 -------------------------------------------------------------------
 Center     Atomic                   Forces (Hartrees/Bohr)
 Number     Number              X              Y              Z
 -------------------------------------------------------------------
      1        6          -0.001392524    0.001030069   -0.000211908
      2        6           0.002591281   -0.002572983    0.000375766
      3        6           0.002719827    0.000813968    0.000465331
      4        6           0.000744835    0.003601643    0.000191749
      5        6          -0.000607127   -0.001643373   -0.000129781
      6        1           0.000245880   -0.000515002    0.000030936
      7        1          -0.000167864   -0.001011799   -0.000047836
      8        1          -0.001619566   -0.000502952   -0.000659685
      9        1          -0.001741558   -0.000517200    0.000087176
     10        1          -0.000696544    0.000747452   -0.000100722
     11        1          -0.000076641    0.000570176   -0.000001026
 -------------------------------------------------------------------
 Cartesian Forces:  Max     0.003601643 RMS     0.001241118
 Leave Link  716 at Thu Dec  7 02:04:52 2023, MaxMem= 13421772800 cpu:               0.3 elap:               0.0
 (Enter /public/software/apps/Gaussian/g16/l103.exe)

 GradGradGradGradGradGradGradGradGradGradGradGradGradGradGradGradGradGrad
 Berny optimization.
 Using GEDIIS/GDIIS optimizer.
 FormGI is forming the generalized inverse of G from B-inverse, IUseBI=4.
 Internal  Forces:  Max     0.001695663 RMS     0.000796881
 Search for a local minimum.
 Step number   2 out of a maximum of   63
 All quantities printed in internal units (Hartrees-Bohrs-Radians)
 RMS Force = .79688D-03 SwitMx=.10000D-02 MixMth= 2
 Mixed Optimization -- En-DIIS/RFO-DIIS
 Update second derivatives using D2CorX and points    1    2
 DE= -1.47D-03 DEPred=-1.60D-03 R= 9.23D-01
 TightC=F SS=  1.41D+00  RLast= 1.26D-01 DXNew= 5.0454D-01 3.7800D-01
 Trust test= 9.23D-01 RLast= 1.26D-01 DXMaxT set to 3.78D-01
 ITU=  1  0
 Use linear search instead of GDIIS.
     Eigenvalues ---    0.01015   0.01466   0.01671   0.02059   0.02150
     Eigenvalues ---    0.02459   0.05393   0.06581   0.08646   0.09820
     Eigenvalues ---    0.15689   0.16000   0.16000   0.16082   0.22000
     Eigenvalues ---    0.23218   0.31088   0.31466   0.34028   0.34378
     Eigenvalues ---    0.36033   0.36066   0.36074   0.36284   0.40838
     Eigenvalues ---    0.51979   0.58690
 RFO step:  Lambda=-1.37805921D-04 EMin= 1.01498060D-02
 Quartic linear search produced a step of -0.04059.
 Iteration  1 RMS(Cart)=  0.00467024 RMS(Int)=  0.00001577
 Iteration  2 RMS(Cart)=  0.00001576 RMS(Int)=  0.00000570
 Iteration  3 RMS(Cart)=  0.00000000 RMS(Int)=  0.00000570
 ITry= 1 IFail=0 DXMaxC= 1.34D-02 DCOld= 1.00D+10 DXMaxT= 3.78D-01 DXLimC= 3.00D+00 Rises=F
 Variable       Old X    -DE/DX   Delta X   Delta X   Delta X     New X
                                 (Linear)    (Quad)   (Total)
    R1        2.55193  -0.00149  -0.00076  -0.00090  -0.00166   2.55026
    R2        2.77623  -0.00089  -0.00230   0.00271   0.00042   2.77664
    R3        2.05126  -0.00025  -0.00046   0.00027  -0.00019   2.05106
    R4        2.85375  -0.00168  -0.00073  -0.00380  -0.00453   2.84922
    R5        2.04942  -0.00074  -0.00040  -0.00118  -0.00158   2.04784
    R6        2.85380  -0.00170  -0.00073  -0.00384  -0.00458   2.84923
    R7        2.07708   0.00075  -0.00041   0.00292   0.00251   2.07959
    R8        2.07708   0.00075  -0.00041   0.00292   0.00251   2.07959
    R9        2.55194  -0.00149  -0.00076  -0.00092  -0.00168   2.55026
   R10        2.04941  -0.00074  -0.00040  -0.00117  -0.00157   2.04784
   R11        2.05126  -0.00025  -0.00047   0.00028  -0.00019   2.05107
    A1        1.91123  -0.00076  -0.00009  -0.00303  -0.00312   1.90811
    A2        2.19892   0.00091   0.00026   0.00426   0.00452   2.20344
    A3        2.17303  -0.00015  -0.00017  -0.00123  -0.00140   2.17163
    A4        1.89850   0.00158   0.00069   0.00483   0.00552   1.90402
    A5        2.21311  -0.00006  -0.00080   0.00284   0.00204   2.21515
    A6        2.17158  -0.00152   0.00011  -0.00767  -0.00756   2.16402
    A7        1.80535  -0.00164  -0.00119  -0.00364  -0.00482   1.80053
    A8        1.94773   0.00078  -0.00025   0.00570   0.00547   1.95320
    A9        1.94775   0.00078  -0.00024   0.00568   0.00546   1.95320
   A10        1.94770   0.00078  -0.00025   0.00572   0.00549   1.95319
   A11        1.94771   0.00078  -0.00025   0.00571   0.00548   1.95319
   A12        1.86925  -0.00137   0.00197  -0.01788  -0.01590   1.85335
   A13        1.89849   0.00158   0.00069   0.00484   0.00553   1.90401
   A14        2.17159  -0.00152   0.00011  -0.00769  -0.00757   2.16402
   A15        2.21311  -0.00006  -0.00080   0.00284   0.00205   2.21515
   A16        1.91122  -0.00076  -0.00010  -0.00301  -0.00310   1.90811
   A17        2.17307  -0.00015  -0.00017  -0.00127  -0.00143   2.17164
   A18        2.19889   0.00091   0.00026   0.00428   0.00454   2.20343
    D1        0.00001  -0.00000  -0.00000  -0.00002  -0.00002  -0.00001
    D2        3.14159  -0.00000  -0.00000  -0.00001  -0.00001   3.14158
    D3        3.14158   0.00000  -0.00000   0.00001   0.00001  -3.14159
    D4       -0.00003   0.00000  -0.00000   0.00002   0.00002  -0.00001
    D5       -0.00003   0.00000   0.00000   0.00004   0.00005   0.00002
    D6        3.14158   0.00000   0.00000   0.00001   0.00001  -3.14159
    D7        3.14159   0.00000   0.00000   0.00001   0.00001  -3.14158
    D8        0.00002  -0.00000   0.00000  -0.00002  -0.00002  -0.00000
    D9        0.00000  -0.00000  -0.00000  -0.00001  -0.00001  -0.00001
   D10        2.09621   0.00034  -0.00109   0.00750   0.00640   2.10261
   D11       -2.09622  -0.00034   0.00109  -0.00751  -0.00641  -2.10263
   D12       -3.14158  -0.00000  -0.00000  -0.00002  -0.00002   3.14159
   D13       -1.04537   0.00034  -0.00109   0.00749   0.00639  -1.03897
   D14        1.04539  -0.00034   0.00109  -0.00751  -0.00641   1.03897
   D15       -0.00002   0.00000   0.00000   0.00004   0.00004   0.00002
   D16        3.14157   0.00000  -0.00000   0.00003   0.00002  -3.14159
   D17       -2.09625  -0.00034   0.00109  -0.00746  -0.00636  -2.10261
   D18        1.04534  -0.00034   0.00109  -0.00747  -0.00638   1.03896
   D19        2.09623   0.00034  -0.00109   0.00751   0.00642   2.10265
   D20       -1.04537   0.00034  -0.00109   0.00750   0.00640  -1.03896
   D21        0.00003  -0.00000  -0.00000  -0.00005  -0.00005  -0.00003
   D22       -3.14158  -0.00000  -0.00000  -0.00002  -0.00002   3.14158
   D23       -3.14156  -0.00000   0.00000  -0.00004  -0.00004   3.14159
   D24        0.00001  -0.00000   0.00000  -0.00000  -0.00000   0.00001
         Item               Value     Threshold  Converged?
 Maximum Force            0.001696     0.000450     NO 
 RMS     Force            0.000797     0.000300     NO 
 Maximum Displacement     0.013446     0.001800     NO 
 RMS     Displacement     0.004670     0.001200     NO 
 Predicted change in Energy=-7.239432D-05
 Lowest energy point so far.  Saving SCF results.
 GradGradGradGradGradGradGradGradGradGradGradGradGradGradGradGradGradGrad

 Leave Link  103 at Thu Dec  7 02:04:53 2023, MaxMem= 13421772800 cpu:              11.5 elap:               0.4
 (Enter /public/software/apps/Gaussian/g16/l202.exe)
                          Input orientation:                          
 ---------------------------------------------------------------------
 Center     Atomic      Atomic             Coordinates (Angstroms)
 Number     Number       Type             X           Y           Z
 ---------------------------------------------------------------------
      1          6           0        0.811904    1.014689    0.153421
      2          6           0       -0.518562    1.076492   -0.064063
      3          6           0       -1.064672   -0.323967   -0.181370
      4          6           0        0.158544   -1.186025    0.002735
      5          6           0        1.233001   -0.392400    0.194980
      6          1           0        1.481407    1.859533    0.280086
      7          1           0       -1.123871    1.971609   -0.145956
      8          1           0       -1.831345   -0.530925    0.580486
      9          1           0       -1.545943   -0.496775   -1.155823
     10          1           0        0.145330   -2.269360   -0.020746
     11          1           0        2.254206   -0.722771    0.356352
 ---------------------------------------------------------------------
                    Distance matrix (angstroms):
                    1          2          3          4          5
     1  C    0.000000
     2  C    1.349541   0.000000
     3  C    2.329297   1.507741   0.000000
     4  C    2.300593   2.362608   1.507746   0.000000
     5  C    1.469336   2.300591   2.329297   1.349539   0.000000
     6  H    1.085375   2.175195   3.385726   3.332014   2.267190
     7  H    2.180034   1.083670   2.296612   3.411356   3.355536
     8  H    3.091613   2.173161   1.100474   2.173157   3.091604
     9  H    3.091616   2.173159   1.100473   2.173154   3.091616
    10  H    3.355538   3.411357   2.296619   1.083670   2.180033
    11  H    2.267197   3.332018   3.385727   2.175189   1.085379
                    6          7          8          9         10
     6  H    0.000000
     7  H    2.642262   0.000000
     8  H    4.096200   2.700169   0.000000
     9  H    4.096202   2.700166   1.759940   0.000000
    10  H    4.350099   4.428585   2.700163   2.700159   0.000000
    11  H    2.696540   4.350104   4.096189   4.096203   2.642253
                   11
    11  H    0.000000
 Stoichiometry    C5H6
 Framework group  C1[X(C5H6)]
 Deg. of freedom    27
 Full point group                 C1      NOp   1
 RotChk:  IX=3 Diff= 7.26D-04
 Largest Abelian subgroup         C1      NOp   1
 Largest concise Abelian subgroup C1      NOp   1
                         Standard orientation:                         
 ---------------------------------------------------------------------
 Center     Atomic      Atomic             Coordinates (Angstroms)
 Number     Number       Type             X           Y           Z
 ---------------------------------------------------------------------
      1          6           0        0.734611   -0.991661   -0.000004
      2          6           0        1.181320    0.281803   -0.000001
      3          6           0        0.000074    1.218787    0.000004
      4          6           0       -1.181288    0.281940   -0.000009
      5          6           0       -0.734725   -0.991574    0.000008
      6          1           0        1.348156   -1.886984   -0.000007
      7          1           0        2.214327    0.609273    0.000002
      8          1           0        0.000102    1.879610    0.879979
      9          1           0        0.000107    1.879622   -0.879961
     10          1           0       -2.214258    0.609529   -0.000012
     11          1           0       -1.348385   -1.886822    0.000011
 ---------------------------------------------------------------------
 Rotational constants (GHZ):           8.4346590           8.2104630           4.2702660
 Leave Link  202 at Thu Dec  7 02:04:53 2023, MaxMem= 13421772800 cpu:               0.2 elap:               0.0
 (Enter /public/software/apps/Gaussian/g16/l301.exe)
 Standard basis: 6-31G(d) (6D, 7F)
 Ernie: Thresh=  0.10000D-02 Tol=  0.10000D-05 Strict=F.
 There are    87 symmetry adapted cartesian basis functions of A   symmetry.
 There are    87 symmetry adapted basis functions of A   symmetry.
    87 basis functions,   164 primitive gaussians,    87 cartesian basis functions
    18 alpha electrons       18 beta electrons
       nuclear repulsion energy       156.3766820421 Hartrees.
 IExCor=  402 DFT=T Ex+Corr=B3LYP ExCW=0 ScaHFX=  0.200000
 ScaDFX=  0.800000  0.720000  1.000000  0.810000 ScalE2=  1.000000  1.000000
 IRadAn=      5 IRanWt=     -1 IRanGd=            0 ICorTp=0 IEmpDi=141
 NAtoms=   11 NActive=   11 NUniq=   11 SFac= 1.00D+00 NAtFMM=   60 NAOKFM=F Big=F
 Integral buffers will be    131072 words long.
 Raffenetti 2 integral format.
 Two-electron integral symmetry is turned on.
 R6Disp:  Grimme-D3(BJ) Dispersion energy=       -0.0148577995 Hartrees.
 Nuclear repulsion after empirical dispersion term =      156.3618242426 Hartrees.
 Leave Link  301 at Thu Dec  7 02:04:53 2023, MaxMem= 13421772800 cpu:               1.2 elap:               0.1
 (Enter /public/software/apps/Gaussian/g16/l302.exe)
 NPDir=0 NMtPBC=     1 NCelOv=     1 NCel=       1 NClECP=     1 NCelD=      1
         NCelK=      1 NCelE2=     1 NClLst=     1 CellRange=     0.0.
 One-electron integrals computed using PRISM.
 One-electron integral symmetry used in STVInt
 NBasis=    87 RedAO= T EigKep=  1.67D-03  NBF=    87
 NBsUse=    87 1.00D-06 EigRej= -1.00D+00 NBFU=    87
 Precomputing XC quadrature grid using
 IXCGrd= 4 IRadAn=           5 IRanWt=          -1 IRanGd=           0 AccXCQ= 0.00D+00.
 Generated NRdTot=       0 NPtTot=           0 NUsed=           0 NTot=          32
 NSgBfM=    87    87    87    87    87 MxSgAt=    11 MxSgA2=    11.
 Leave Link  302 at Thu Dec  7 02:04:53 2023, MaxMem= 13421772800 cpu:               9.1 elap:               0.3
 (Enter /public/software/apps/Gaussian/g16/l303.exe)
 DipDrv:  MaxL=1.
 Leave Link  303 at Thu Dec  7 02:04:53 2023, MaxMem= 13421772800 cpu:               0.2 elap:               0.0
 (Enter /public/software/apps/Gaussian/g16/l401.exe)
 Initial guess from the checkpoint file:  "/public/home/LJQ_HG/tmp/Gau-81757.chk"
 B after Tr=    -0.000000   -0.000000    0.000000
         Rot=    1.000000   -0.000000    0.000000   -0.000257 Ang=  -0.03 deg.
 Guess basis will be translated and rotated to current coordinates.
 JPrj=2 DoOrth=T DoCkMO=T.
 Leave Link  401 at Thu Dec  7 02:04:54 2023, MaxMem= 13421772800 cpu:               8.3 elap:               0.3
 (Enter /public/software/apps/Gaussian/g16/l502.exe)
 Keep R1 ints in memory in canonical form, NReq=36454127.
 FoFCou: FMM=F IPFlag=           0 FMFlag=           0 FMFlg1=           0
         NFxFlg=           0 DoJE=F BraDBF=F KetDBF=F FulRan=T
         wScrn=  0.000000 ICntrl=       600 IOpCl=  0 I1Cent=           0 NGrid=           0
         NMat0=    1 NMatS0=   3828 NMatT0=    0 NMatD0=    1 NMtDS0=    0 NMtDT0=    0
 Symmetry not used in FoFCou.
 Two-electron integral symmetry not used.
 Closed shell SCF:
 Using DIIS extrapolation, IDIIS=  1040.
 NGot= 13421772800 LenX= 13414424771 LenY= 13414416761
 Requested convergence on RMS density matrix=1.00D-08 within 128 cycles.
 Requested convergence on MAX density matrix=1.00D-06.
 Requested convergence on             energy=1.00D-06.
 No special actions if energy rises.

 Cycle   1  Pass 1  IDiag  1:
 E= -194.115897683447    
 DIIS: error= 3.00D-04 at cycle   1 NSaved=   1.
 NSaved= 1 IEnMin= 1 EnMin= -194.115897683447     IErMin= 1 ErrMin= 3.00D-04
 ErrMax= 3.00D-04  0.00D+00 EMaxC= 1.00D-01 BMatC= 1.04D-05 BMatP= 1.04D-05
 IDIUse=3 WtCom= 9.97D-01 WtEn= 3.00D-03
 Coeff-Com:  0.100D+01
 Coeff-En:   0.100D+01
 Coeff:      0.100D+01
 Gap=     1.907 Goal=   None    Shift=    0.000
 RMSDP=7.39D-05 MaxDP=7.25D-04              OVMax= 1.36D-03

 Cycle   2  Pass 1  IDiag  1:
 E= -194.115913767007     Delta-E=       -0.000016083560 Rises=F Damp=F
 DIIS: error= 5.24D-05 at cycle   2 NSaved=   2.
 NSaved= 2 IEnMin= 2 EnMin= -194.115913767007     IErMin= 2 ErrMin= 5.24D-05
 ErrMax= 5.24D-05  0.00D+00 EMaxC= 1.00D-01 BMatC= 2.78D-07 BMatP= 1.04D-05
 IDIUse=1 WtCom= 1.00D+00 WtEn= 0.00D+00
 Coeff-Com:  0.972D-02 0.990D+00
 Coeff:      0.972D-02 0.990D+00
 Gap=     0.201 Goal=   None    Shift=    0.000
 RMSDP=1.32D-05 MaxDP=1.80D-04 DE=-1.61D-05 OVMax= 2.47D-04

 Cycle   3  Pass 1  IDiag  1:
 E= -194.115913858029     Delta-E=       -0.000000091022 Rises=F Damp=F
 DIIS: error= 5.75D-05 at cycle   3 NSaved=   3.
 NSaved= 3 IEnMin= 3 EnMin= -194.115913858029     IErMin= 2 ErrMin= 5.24D-05
 ErrMax= 5.75D-05  0.00D+00 EMaxC= 1.00D-01 BMatC= 2.47D-07 BMatP= 2.78D-07
 IDIUse=1 WtCom= 1.00D+00 WtEn= 0.00D+00
 Coeff-Com: -0.220D-01 0.492D+00 0.530D+00
 Coeff:     -0.220D-01 0.492D+00 0.530D+00
 Gap=     0.201 Goal=   None    Shift=    0.000
 RMSDP=6.45D-06 MaxDP=8.56D-05 DE=-9.10D-08 OVMax= 1.27D-04

 Cycle   4  Pass 1  IDiag  1:
 E= -194.115914105126     Delta-E=       -0.000000247097 Rises=F Damp=F
 DIIS: error= 6.21D-06 at cycle   4 NSaved=   4.
 NSaved= 4 IEnMin= 4 EnMin= -194.115914105126     IErMin= 4 ErrMin= 6.21D-06
 ErrMax= 6.21D-06  0.00D+00 EMaxC= 1.00D-01 BMatC= 3.88D-09 BMatP= 2.47D-07
 IDIUse=1 WtCom= 1.00D+00 WtEn= 0.00D+00
 Coeff-Com: -0.743D-02 0.103D+00 0.166D+00 0.738D+00
 Coeff:     -0.743D-02 0.103D+00 0.166D+00 0.738D+00
 Gap=     0.201 Goal=   None    Shift=    0.000
 RMSDP=8.66D-07 MaxDP=1.30D-05 DE=-2.47D-07 OVMax= 2.61D-05

 Cycle   5  Pass 1  IDiag  1:
 E= -194.115914107855     Delta-E=       -0.000000002729 Rises=F Damp=F
 DIIS: error= 4.07D-06 at cycle   5 NSaved=   5.
 NSaved= 5 IEnMin= 5 EnMin= -194.115914107855     IErMin= 5 ErrMin= 4.07D-06
 ErrMax= 4.07D-06  0.00D+00 EMaxC= 1.00D-01 BMatC= 9.47D-10 BMatP= 3.88D-09
 IDIUse=1 WtCom= 1.00D+00 WtEn= 0.00D+00
 Coeff-Com: -0.341D-02 0.375D-01 0.729D-01 0.422D+00 0.471D+00
 Coeff:     -0.341D-02 0.375D-01 0.729D-01 0.422D+00 0.471D+00
 Gap=     0.201 Goal=   None    Shift=    0.000
 RMSDP=4.70D-07 MaxDP=8.14D-06 DE=-2.73D-09 OVMax= 1.75D-05

 Cycle   6  Pass 1  IDiag  1:
 E= -194.115914108732     Delta-E=       -0.000000000877 Rises=F Damp=F
 DIIS: error= 1.56D-06 at cycle   6 NSaved=   6.
 NSaved= 6 IEnMin= 6 EnMin= -194.115914108732     IErMin= 6 ErrMin= 1.56D-06
 ErrMax= 1.56D-06  0.00D+00 EMaxC= 1.00D-01 BMatC= 1.14D-10 BMatP= 9.47D-10
 IDIUse=1 WtCom= 1.00D+00 WtEn= 0.00D+00
 Coeff-Com:  0.106D-04-0.348D-02 0.408D-03 0.484D-01 0.272D+00 0.683D+00
 Coeff:      0.106D-04-0.348D-02 0.408D-03 0.484D-01 0.272D+00 0.683D+00
 Gap=     0.201 Goal=   None    Shift=    0.000
 RMSDP=1.44D-07 MaxDP=2.27D-06 DE=-8.77D-10 OVMax= 5.76D-06

 Cycle   7  Pass 1  IDiag  1:
 E= -194.115914108860     Delta-E=       -0.000000000128 Rises=F Damp=F
 DIIS: error= 1.26D-07 at cycle   7 NSaved=   7.
 NSaved= 7 IEnMin= 7 EnMin= -194.115914108860     IErMin= 7 ErrMin= 1.26D-07
 ErrMax= 1.26D-07  0.00D+00 EMaxC= 1.00D-01 BMatC= 1.68D-12 BMatP= 1.14D-10
 IDIUse=1 WtCom= 1.00D+00 WtEn= 0.00D+00
 Coeff-Com:  0.540D-04-0.185D-02-0.116D-02 0.993D-02 0.881D-01 0.260D+00
 Coeff-Com:  0.645D+00
 Coeff:      0.540D-04-0.185D-02-0.116D-02 0.993D-02 0.881D-01 0.260D+00
 Coeff:      0.645D+00
 Gap=     0.201 Goal=   None    Shift=    0.000
 RMSDP=2.15D-08 MaxDP=3.68D-07 DE=-1.28D-10 OVMax= 4.17D-07

 Cycle   8  Pass 1  IDiag  1:
 E= -194.115914108862     Delta-E=       -0.000000000002 Rises=F Damp=F
 DIIS: error= 5.56D-08 at cycle   8 NSaved=   8.
 NSaved= 8 IEnMin= 8 EnMin= -194.115914108862     IErMin= 8 ErrMin= 5.56D-08
 ErrMax= 5.56D-08  0.00D+00 EMaxC= 1.00D-01 BMatC= 2.71D-13 BMatP= 1.68D-12
 IDIUse=1 WtCom= 1.00D+00 WtEn= 0.00D+00
 Coeff-Com:  0.372D-04-0.656D-03-0.932D-03-0.205D-02 0.836D-02 0.472D-01
 Coeff-Com:  0.309D+00 0.639D+00
 Coeff:      0.372D-04-0.656D-03-0.932D-03-0.205D-02 0.836D-02 0.472D-01
 Coeff:      0.309D+00 0.639D+00
 Gap=     0.201 Goal=   None    Shift=    0.000
 RMSDP=5.87D-09 MaxDP=1.32D-07 DE=-1.53D-12 OVMax= 1.65D-07

 SCF Done:  E(RB3LYP) =  -194.115914109     A.U. after    8 cycles
            NFock=  8  Conv=0.59D-08     -V/T= 2.0101
 KE= 1.921664917348D+02 PE=-7.618066795132D+02 EE= 2.191624494270D+02
 Leave Link  502 at Thu Dec  7 02:04:54 2023, MaxMem= 13421772800 cpu:              15.1 elap:               0.5
 (Enter /public/software/apps/Gaussian/g16/l701.exe)
 ... and contract with generalized density number  0.
 Compute integral first derivatives.
 R6Disp: Adding Grimme-D3(BJ) dispersion energy 1st derivatives to the gradient.
 Leave Link  701 at Thu Dec  7 02:04:54 2023, MaxMem= 13421772800 cpu:               4.2 elap:               0.2
 (Enter /public/software/apps/Gaussian/g16/l702.exe)
 L702 exits ... SP integral derivatives will be done elsewhere.
 Leave Link  702 at Thu Dec  7 02:04:54 2023, MaxMem= 13421772800 cpu:               0.7 elap:               0.0
 (Enter /public/software/apps/Gaussian/g16/l703.exe)
 Integral derivatives from FoFJK, PRISM(SPDF).
 Compute integral first derivatives, UseDBF=F ICtDFT=           0.
 Calling FoFJK, ICntrl=      2127 FMM=F ISym2X=0 I1Cent= 0 IOpClX= 0 NMat=1 NMatS=1 NMatT=0.
 FoFJK:  IHMeth= 1 ICntrl=    2127 DoSepK=F KAlg= 0 I1Cent=           0 FoldK=F
 IRaf=         0 NMat=       1 IRICut=       1 DoRegI=T DoRafI=F ISym2E= 0 IDoP0=0 IntGTp=1.
 FoFCou: FMM=F IPFlag=           0 FMFlag=      100000 FMFlg1=         800
         NFxFlg=           0 DoJE=F BraDBF=F KetDBF=F FulRan=T
         wScrn=  0.000000 ICntrl=      2127 IOpCl=  0 I1Cent=           0 NGrid=           0
         NMat0=    1 NMatS0=      1 NMatT0=    0 NMatD0=    1 NMtDS0=    0 NMtDT0=    0
 Symmetry not used in FoFCou.
 Leave Link  703 at Thu Dec  7 02:04:55 2023, MaxMem= 13421772800 cpu:              11.9 elap:               0.4
 (Enter /public/software/apps/Gaussian/g16/l716.exe)
 Dipole        = 8.99687013D-06 1.70984051D-01 5.03755677D-06
 ***** Axes restored to original set *****
 -------------------------------------------------------------------
 Center     Atomic                   Forces (Hartrees/Bohr)
 Number     Number              X              Y              Z
 -------------------------------------------------------------------
      1        6          -0.000873237    0.000351036   -0.000135230
      2        6           0.000628708   -0.000385244    0.000096194
      3        6           0.001562051    0.000472055    0.000264325
      4        6           0.000309364    0.000672593    0.000066587
      5        6          -0.000530536   -0.000780801   -0.000105010
      6        1          -0.000067255   -0.000293362   -0.000016738
      7        1          -0.000102378   -0.000080034   -0.000018670
      8        1          -0.000263715   -0.000084460   -0.000203538
      9        1          -0.000315014   -0.000090317    0.000104910
     10        1          -0.000129467    0.000010014   -0.000020928
     11        1          -0.000218520    0.000208521   -0.000031903
 -------------------------------------------------------------------
 Cartesian Forces:  Max     0.001562051 RMS     0.000429888
 Leave Link  716 at Thu Dec  7 02:04:55 2023, MaxMem= 13421772800 cpu:               2.8 elap:               0.1
 (Enter /public/software/apps/Gaussian/g16/l103.exe)

 GradGradGradGradGradGradGradGradGradGradGradGradGradGradGradGradGradGrad
 Berny optimization.
 Using GEDIIS/GDIIS optimizer.
 FormGI is forming the generalized inverse of G from B-inverse, IUseBI=4.
 Internal  Forces:  Max     0.000922434 RMS     0.000240466
 Search for a local minimum.
 Step number   3 out of a maximum of   63
 All quantities printed in internal units (Hartrees-Bohrs-Radians)
 RMS Force = .24047D-03 SwitMx=.10000D-02 MixMth= 2
 Mixed Optimization -- En-DIIS/RFO-DIIS
 Swapping is turned off.
 Update second derivatives using D2CorX and points    1    2    3
 DE= -8.21D-05 DEPred=-7.24D-05 R= 1.13D+00
 TightC=F SS=  1.41D+00  RLast= 3.22D-02 DXNew= 6.3572D-01 9.6586D-02
 Trust test= 1.13D+00 RLast= 3.22D-02 DXMaxT set to 3.78D-01
 ITU=  1  1  0
     Eigenvalues ---    0.01015   0.01472   0.01678   0.02059   0.02153
     Eigenvalues ---    0.02461   0.05374   0.05553   0.08637   0.09809
     Eigenvalues ---    0.15230   0.16000   0.16000   0.16029   0.22000
     Eigenvalues ---    0.26186   0.29808   0.31457   0.34135   0.34378
     Eigenvalues ---    0.36065   0.36074   0.36147   0.36382   0.40801
     Eigenvalues ---    0.51953   0.56695
 En-DIIS/RFO-DIIS/Sim-DIIS IScMMF=       -3 using points:     3    2
 RFO step:  Lambda=-1.32790860D-05.
 NNeg= 0 NGDIIS= 2 SimSw=  2.50D-03 Rises=F DC= -8.21D-05 SmlDif=  1.00D-05
 NRisDI= 0 DoIntr=F SqrtH=F CThrHd= 10.0 CDAdj=  3.0
 RMS Error=  0.1616838095D-02 NUsed= 2 OKEnD=T EnDIS=F
 InvSVX:  RCond= 2.59D-04 Info=           0 Equed=N FErr=  1.74D-15 BErr=  8.78D-17
 DidBck=F Rises=F RFO-DIIS coefs:    1.29944   -0.29944
 Iteration  1 RMS(Cart)=  0.00114382 RMS(Int)=  0.00000214
 Iteration  2 RMS(Cart)=  0.00000194 RMS(Int)=  0.00000108
 Iteration  3 RMS(Cart)=  0.00000000 RMS(Int)=  0.00000108
 ITry= 1 IFail=0 DXMaxC= 4.27D-03 DCOld= 1.00D+10 DXMaxT= 3.78D-01 DXLimC= 3.00D+00 Rises=F
 Variable       Old X    -DE/DX   Delta X   Delta X   Delta X     New X
                                 (Linear)    (Quad)   (Total)
    R1        2.55026  -0.00092  -0.00050  -0.00131  -0.00181   2.54845
    R2        2.77664   0.00010   0.00013   0.00080   0.00092   2.77757
    R3        2.05106  -0.00027  -0.00006  -0.00074  -0.00079   2.05027
    R4        2.84922  -0.00061  -0.00136  -0.00111  -0.00247   2.84675
    R5        2.04784  -0.00001  -0.00047   0.00042  -0.00005   2.04779
    R6        2.84923  -0.00061  -0.00137  -0.00111  -0.00248   2.84675
    R7        2.07959   0.00006   0.00075  -0.00029   0.00046   2.08006
    R8        2.07959   0.00006   0.00075  -0.00029   0.00046   2.08006
    R9        2.55026  -0.00092  -0.00050  -0.00131  -0.00181   2.54845
   R10        2.04784  -0.00001  -0.00047   0.00042  -0.00005   2.04779
   R11        2.05107  -0.00027  -0.00006  -0.00074  -0.00080   2.05027
    A1        1.90811   0.00000  -0.00093   0.00081  -0.00013   1.90798
    A2        2.20344   0.00013   0.00135  -0.00015   0.00120   2.20465
    A3        2.17163  -0.00013  -0.00042  -0.00065  -0.00107   2.17056
    A4        1.90402  -0.00013   0.00165  -0.00237  -0.00071   1.90330
    A5        2.21515   0.00020   0.00061   0.00116   0.00177   2.21692
    A6        2.16402  -0.00007  -0.00226   0.00121  -0.00105   2.16297
    A7        1.80053   0.00025  -0.00144   0.00313   0.00168   1.80221
    A8        1.95320  -0.00001   0.00164  -0.00058   0.00105   1.95426
    A9        1.95320  -0.00001   0.00163  -0.00057   0.00106   1.95426
   A10        1.95319  -0.00001   0.00164  -0.00058   0.00106   1.95425
   A11        1.95319  -0.00001   0.00164  -0.00057   0.00107   1.95426
   A12        1.85335  -0.00021  -0.00476  -0.00081  -0.00557   1.84778
   A13        1.90401  -0.00013   0.00165  -0.00237  -0.00071   1.90330
   A14        2.16402  -0.00007  -0.00227   0.00121  -0.00106   2.16296
   A15        2.21515   0.00020   0.00061   0.00115   0.00177   2.21692
   A16        1.90811   0.00000  -0.00093   0.00080  -0.00013   1.90798
   A17        2.17164  -0.00014  -0.00043  -0.00065  -0.00108   2.17056
   A18        2.20343   0.00013   0.00136  -0.00015   0.00121   2.20465
    D1       -0.00001   0.00000  -0.00001   0.00002   0.00001   0.00001
    D2        3.14158   0.00000  -0.00000   0.00002   0.00002  -3.14158
    D3       -3.14159  -0.00000   0.00000  -0.00001  -0.00000   3.14159
    D4       -0.00001  -0.00000   0.00001  -0.00000   0.00000  -0.00000
    D5        0.00002  -0.00000   0.00001  -0.00006  -0.00004  -0.00002
    D6       -3.14159  -0.00000   0.00000  -0.00001  -0.00001   3.14159
    D7       -3.14158  -0.00000   0.00000  -0.00003  -0.00003   3.14158
    D8       -0.00000   0.00000  -0.00001   0.00001   0.00001   0.00000
    D9       -0.00001   0.00000  -0.00000   0.00002   0.00002   0.00001
   D10        2.10261   0.00014   0.00192   0.00093   0.00284   2.10546
   D11       -2.10263  -0.00014  -0.00192  -0.00090  -0.00282  -2.10545
   D12        3.14159   0.00000  -0.00001   0.00002   0.00001  -3.14158
   D13       -1.03897   0.00014   0.00191   0.00092   0.00284  -1.03614
   D14        1.03897  -0.00014  -0.00192  -0.00091  -0.00283   1.03614
   D15        0.00002  -0.00000   0.00001  -0.00006  -0.00005  -0.00002
   D16       -3.14159  -0.00000   0.00001  -0.00002  -0.00001   3.14159
   D17       -2.10261  -0.00014  -0.00190  -0.00096  -0.00286  -2.10548
   D18        1.03896  -0.00014  -0.00191  -0.00092  -0.00283   1.03614
   D19        2.10265   0.00014   0.00192   0.00086   0.00279   2.10543
   D20       -1.03896   0.00014   0.00192   0.00090   0.00282  -1.03614
   D21       -0.00003   0.00000  -0.00002   0.00007   0.00006   0.00003
   D22        3.14158   0.00000  -0.00001   0.00003   0.00002  -3.14158
   D23        3.14159   0.00000  -0.00001   0.00003   0.00002  -3.14158
   D24        0.00001  -0.00000  -0.00000  -0.00002  -0.00002  -0.00001
         Item               Value     Threshold  Converged?
 Maximum Force            0.000922     0.000450     NO 
 RMS     Force            0.000240     0.000300     YES
 Maximum Displacement     0.004275     0.001800     NO 
 RMS     Displacement     0.001145     0.001200     YES
 Predicted change in Energy=-6.642699D-06
 Lowest energy point so far.  Saving SCF results.
 GradGradGradGradGradGradGradGradGradGradGradGradGradGradGradGradGradGrad

 Leave Link  103 at Thu Dec  7 02:04:55 2023, MaxMem= 13421772800 cpu:               0.9 elap:               0.0
 (Enter /public/software/apps/Gaussian/g16/l202.exe)
                          Input orientation:                          
 ---------------------------------------------------------------------
 Center     Atomic      Atomic             Coordinates (Angstroms)
 Number     Number       Type             X           Y           Z
 ---------------------------------------------------------------------
      1          6           0        0.811586    1.014846    0.153381
      2          6           0       -0.517942    1.076431   -0.063957
      3          6           0       -1.062410   -0.323283   -0.180991
      4          6           0        0.159025   -1.185630    0.002842
      5          6           0        1.232827   -0.392711    0.194927
      6          1           0        1.481724    1.858632    0.280133
      7          1           0       -1.124907    1.970368   -0.146147
      8          1           0       -1.831277   -0.530947    0.578813
      9          1           0       -1.546391   -0.496863   -1.154240
     10          1           0        0.143780   -2.268906   -0.020963
     11          1           0        2.253986   -0.721835    0.356304
 ---------------------------------------------------------------------
                    Distance matrix (angstroms):
                    1          2          3          4          5
     1  C    0.000000
     2  C    1.348582   0.000000
     3  C    2.326855   1.506434   0.000000
     4  C    2.300129   2.362132   1.506433   0.000000
     5  C    1.469826   2.300129   2.326854   1.348580   0.000000
     6  H    1.084955   2.174604   3.383195   3.330760   2.266662
     7  H    2.180078   1.083644   2.294767   3.410426   3.355501
     8  H    3.091147   2.172939   1.100719   2.172937   3.091151
     9  H    3.091147   2.172942   1.100719   2.172944   3.091142
    10  H    3.355501   3.410426   2.294766   1.083645   2.180078
    11  H    2.266662   3.330760   3.383195   2.174604   1.084956
                    6          7          8          9         10
     6  H    0.000000
     7  H    2.643619   0.000000
     8  H    4.095763   2.698352   0.000000
     9  H    4.095762   2.698357   1.756643   0.000000
    10  H    4.349406   4.426814   2.698348   2.698357   0.000000
    11  H    2.694624   4.349405   4.095769   4.095756   2.643620
                   11
    11  H    0.000000
 Stoichiometry    C5H6
 Framework group  C1[X(C5H6)]
 Deg. of freedom    27
 Full point group                 C1      NOp   1
 RotChk:  IX=1 Diff= 1.63D-04
 Largest Abelian subgroup         C1      NOp   1
 Largest concise Abelian subgroup C1      NOp   1
                         Standard orientation:                         
 ---------------------------------------------------------------------
 Center     Atomic      Atomic             Coordinates (Angstroms)
 Number     Number       Type             X           Y           Z
 ---------------------------------------------------------------------
      1          6           0        0.734969   -0.990892    0.000005
      2          6           0        1.181050    0.281776    0.000001
      3          6           0       -0.000069    1.216816   -0.000005
      4          6           0       -1.181082    0.281642    0.000010
      5          6           0       -0.734857   -0.990975   -0.000009
      6          1           0        1.347419   -1.886455    0.000007
      7          1           0        2.213373    0.611314    0.000001
      8          1           0       -0.000105    1.880246    0.878312
      9          1           0       -0.000108    1.880236   -0.878331
     10          1           0       -2.213441    0.611064    0.000015
     11          1           0       -1.347205   -1.886607   -0.000015
 ---------------------------------------------------------------------
 Rotational constants (GHZ):           8.4476447           8.2136418           4.2740306
 Leave Link  202 at Thu Dec  7 02:04:55 2023, MaxMem= 13421772800 cpu:               1.3 elap:               0.1
 (Enter /public/software/apps/Gaussian/g16/l301.exe)
 Standard basis: 6-31G(d) (6D, 7F)
 Ernie: Thresh=  0.10000D-02 Tol=  0.10000D-05 Strict=F.
 There are    87 symmetry adapted cartesian basis functions of A   symmetry.
 There are    87 symmetry adapted basis functions of A   symmetry.
    87 basis functions,   164 primitive gaussians,    87 cartesian basis functions
    18 alpha electrons       18 beta electrons
       nuclear repulsion energy       156.4463030347 Hartrees.
 IExCor=  402 DFT=T Ex+Corr=B3LYP ExCW=0 ScaHFX=  0.200000
 ScaDFX=  0.800000  0.720000  1.000000  0.810000 ScalE2=  1.000000  1.000000
 IRadAn=      5 IRanWt=     -1 IRanGd=            0 ICorTp=0 IEmpDi=141
 NAtoms=   11 NActive=   11 NUniq=   11 SFac= 1.00D+00 NAtFMM=   60 NAOKFM=F Big=F
 Integral buffers will be    131072 words long.
 Raffenetti 2 integral format.
 Two-electron integral symmetry is turned on.
 R6Disp:  Grimme-D3(BJ) Dispersion energy=       -0.0148591849 Hartrees.
 Nuclear repulsion after empirical dispersion term =      156.4314438497 Hartrees.
 Leave Link  301 at Thu Dec  7 02:04:55 2023, MaxMem= 13421772800 cpu:               0.5 elap:               0.0
 (Enter /public/software/apps/Gaussian/g16/l302.exe)
 NPDir=0 NMtPBC=     1 NCelOv=     1 NCel=       1 NClECP=     1 NCelD=      1
         NCelK=      1 NCelE2=     1 NClLst=     1 CellRange=     0.0.
 One-electron integrals computed using PRISM.
 One-electron integral symmetry used in STVInt
 NBasis=    87 RedAO= T EigKep=  1.67D-03  NBF=    87
 NBsUse=    87 1.00D-06 EigRej= -1.00D+00 NBFU=    87
 Precomputing XC quadrature grid using
 IXCGrd= 4 IRadAn=           5 IRanWt=          -1 IRanGd=           0 AccXCQ= 0.00D+00.
 Generated NRdTot=       0 NPtTot=           0 NUsed=           0 NTot=          32
 NSgBfM=    87    87    87    87    87 MxSgAt=    11 MxSgA2=    11.
 Leave Link  302 at Thu Dec  7 02:04:55 2023, MaxMem= 13421772800 cpu:               9.4 elap:               0.3
 (Enter /public/software/apps/Gaussian/g16/l303.exe)
 DipDrv:  MaxL=1.
 Leave Link  303 at Thu Dec  7 02:04:55 2023, MaxMem= 13421772800 cpu:               0.3 elap:               0.0
 (Enter /public/software/apps/Gaussian/g16/l401.exe)
 Initial guess from the checkpoint file:  "/public/home/LJQ_HG/tmp/Gau-81757.chk"
 B after Tr=     0.000000    0.000000    0.000000
         Rot=    1.000000    0.000001   -0.000000   -0.000058 Ang=   0.01 deg.
 Guess basis will be translated and rotated to current coordinates.
 JPrj=2 DoOrth=T DoCkMO=T.
 Leave Link  401 at Thu Dec  7 02:04:56 2023, MaxMem= 13421772800 cpu:              10.7 elap:               0.4
 (Enter /public/software/apps/Gaussian/g16/l502.exe)
 Keep R1 ints in memory in canonical form, NReq=36454127.
 FoFCou: FMM=F IPFlag=           0 FMFlag=           0 FMFlg1=           0
         NFxFlg=           0 DoJE=F BraDBF=F KetDBF=F FulRan=T
         wScrn=  0.000000 ICntrl=       600 IOpCl=  0 I1Cent=           0 NGrid=           0
         NMat0=    1 NMatS0=   3828 NMatT0=    0 NMatD0=    1 NMtDS0=    0 NMtDT0=    0
 Symmetry not used in FoFCou.
 Two-electron integral symmetry not used.
 Closed shell SCF:
 Using DIIS extrapolation, IDIIS=  1040.
 NGot= 13421772800 LenX= 13414424771 LenY= 13414416761
 Requested convergence on RMS density matrix=1.00D-08 within 128 cycles.
 Requested convergence on MAX density matrix=1.00D-06.
 Requested convergence on             energy=1.00D-06.
 No special actions if energy rises.

 Cycle   1  Pass 1  IDiag  1:
 E= -194.115917251361    
 DIIS: error= 1.34D-04 at cycle   1 NSaved=   1.
 NSaved= 1 IEnMin= 1 EnMin= -194.115917251361     IErMin= 1 ErrMin= 1.34D-04
 ErrMax= 1.34D-04  0.00D+00 EMaxC= 1.00D-01 BMatC= 1.88D-06 BMatP= 1.88D-06
 IDIUse=3 WtCom= 9.99D-01 WtEn= 1.34D-03
 Coeff-Com:  0.100D+01
 Coeff-En:   0.100D+01
 Coeff:      0.100D+01
 Gap=     1.906 Goal=   None    Shift=    0.000
 RMSDP=3.27D-05 MaxDP=2.98D-04              OVMax= 5.49D-04

 Cycle   2  Pass 1  IDiag  1:
 E= -194.115920272833     Delta-E=       -0.000003021472 Rises=F Damp=F
 DIIS: error= 4.41D-05 at cycle   2 NSaved=   2.
 NSaved= 2 IEnMin= 2 EnMin= -194.115920272833     IErMin= 2 ErrMin= 4.41D-05
 ErrMax= 4.41D-05  0.00D+00 EMaxC= 1.00D-01 BMatC= 1.54D-07 BMatP= 1.88D-06
 IDIUse=1 WtCom= 1.00D+00 WtEn= 0.00D+00
 Coeff-Com:  0.959D-01 0.904D+00
 Coeff:      0.959D-01 0.904D+00
 Gap=     0.202 Goal=   None    Shift=    0.000
 RMSDP=8.63D-06 MaxDP=1.23D-04 DE=-3.02D-06 OVMax= 1.95D-04

 Cycle   3  Pass 1  IDiag  1:
 E= -194.115920282418     Delta-E=       -0.000000009584 Rises=F Damp=F
 DIIS: error= 4.29D-05 at cycle   3 NSaved=   3.
 NSaved= 3 IEnMin= 3 EnMin= -194.115920282418     IErMin= 3 ErrMin= 4.29D-05
 ErrMax= 4.29D-05  0.00D+00 EMaxC= 1.00D-01 BMatC= 1.46D-07 BMatP= 1.54D-07
 IDIUse=1 WtCom= 1.00D+00 WtEn= 0.00D+00
 Coeff-Com: -0.190D-01 0.496D+00 0.523D+00
 Coeff:     -0.190D-01 0.496D+00 0.523D+00
 Gap=     0.202 Goal=   None    Shift=    0.000
 RMSDP=5.06D-06 MaxDP=8.19D-05 DE=-9.58D-09 OVMax= 1.37D-04

 Cycle   4  Pass 1  IDiag  1:
 E= -194.115920422067     Delta-E=       -0.000000139649 Rises=F Damp=F
 DIIS: error= 1.46D-05 at cycle   4 NSaved=   4.
 NSaved= 4 IEnMin= 4 EnMin= -194.115920422067     IErMin= 4 ErrMin= 1.46D-05
 ErrMax= 1.46D-05  0.00D+00 EMaxC= 1.00D-01 BMatC= 9.77D-09 BMatP= 1.46D-07
 IDIUse=1 WtCom= 1.00D+00 WtEn= 0.00D+00
 Coeff-Com: -0.141D-01 0.248D+00 0.309D+00 0.456D+00
 Coeff:     -0.141D-01 0.248D+00 0.309D+00 0.456D+00
 Gap=     0.202 Goal=   None    Shift=    0.000
 RMSDP=1.43D-06 MaxDP=2.49D-05 DE=-1.40D-07 OVMax= 5.16D-05

 Cycle   5  Pass 1  IDiag  1:
 E= -194.115920431959     Delta-E=       -0.000000009892 Rises=F Damp=F
 DIIS: error= 3.72D-06 at cycle   5 NSaved=   5.
 NSaved= 5 IEnMin= 5 EnMin= -194.115920431959     IErMin= 5 ErrMin= 3.72D-06
 ErrMax= 3.72D-06  0.00D+00 EMaxC= 1.00D-01 BMatC= 7.76D-10 BMatP= 9.77D-09
 IDIUse=1 WtCom= 1.00D+00 WtEn= 0.00D+00
 Coeff-Com: -0.409D-02 0.351D-01 0.681D-01 0.248D+00 0.653D+00
 Coeff:     -0.409D-02 0.351D-01 0.681D-01 0.248D+00 0.653D+00
 Gap=     0.202 Goal=   None    Shift=    0.000
 RMSDP=3.99D-07 MaxDP=4.72D-06 DE=-9.89D-09 OVMax= 1.11D-05

 Cycle   6  Pass 1  IDiag  1:
 E= -194.115920432788     Delta-E=       -0.000000000829 Rises=F Damp=F
 DIIS: error= 1.49D-07 at cycle   6 NSaved=   6.
 NSaved= 6 IEnMin= 6 EnMin= -194.115920432788     IErMin= 6 ErrMin= 1.49D-07
 ErrMax= 1.49D-07  0.00D+00 EMaxC= 1.00D-01 BMatC= 2.09D-12 BMatP= 7.76D-10
 IDIUse=1 WtCom= 1.00D+00 WtEn= 0.00D+00
 Coeff-Com: -0.395D-03 0.847D-03 0.586D-02 0.366D-01 0.104D+00 0.854D+00
 Coeff:     -0.395D-03 0.847D-03 0.586D-02 0.366D-01 0.104D+00 0.854D+00
 Gap=     0.202 Goal=   None    Shift=    0.000
 RMSDP=2.28D-08 MaxDP=2.70D-07 DE=-8.29D-10 OVMax= 4.60D-07

 Cycle   7  Pass 1  IDiag  1:
 E= -194.115920432790     Delta-E=       -0.000000000001 Rises=F Damp=F
 DIIS: error= 4.68D-08 at cycle   7 NSaved=   7.
 NSaved= 7 IEnMin= 7 EnMin= -194.115920432790     IErMin= 7 ErrMin= 4.68D-08
 ErrMax= 4.68D-08  0.00D+00 EMaxC= 1.00D-01 BMatC= 2.55D-13 BMatP= 2.09D-12
 IDIUse=1 WtCom= 1.00D+00 WtEn= 0.00D+00
 Coeff-Com:  0.780D-05-0.760D-03-0.369D-03 0.399D-02 0.113D-01 0.271D+00
 Coeff-Com:  0.715D+00
 Coeff:      0.780D-05-0.760D-03-0.369D-03 0.399D-02 0.113D-01 0.271D+00
 Coeff:      0.715D+00
 Gap=     0.202 Goal=   None    Shift=    0.000
 RMSDP=7.02D-09 MaxDP=1.56D-07 DE=-1.42D-12 OVMax= 2.04D-07

 SCF Done:  E(RB3LYP) =  -194.115920433     A.U. after    7 cycles
            NFock=  7  Conv=0.70D-08     -V/T= 2.0101
 KE= 1.921757954479D+02 PE=-7.619529628064D+02 EE= 2.192298030759D+02
 Leave Link  502 at Thu Dec  7 02:04:56 2023, MaxMem= 13421772800 cpu:              16.6 elap:               0.6
 (Enter /public/software/apps/Gaussian/g16/l701.exe)
 ... and contract with generalized density number  0.
 Compute integral first derivatives.
 R6Disp: Adding Grimme-D3(BJ) dispersion energy 1st derivatives to the gradient.
 Leave Link  701 at Thu Dec  7 02:04:56 2023, MaxMem= 13421772800 cpu:               3.8 elap:               0.1
 (Enter /public/software/apps/Gaussian/g16/l702.exe)
 L702 exits ... SP integral derivatives will be done elsewhere.
 Leave Link  702 at Thu Dec  7 02:04:56 2023, MaxMem= 13421772800 cpu:               0.2 elap:               0.0
 (Enter /public/software/apps/Gaussian/g16/l703.exe)
 Integral derivatives from FoFJK, PRISM(SPDF).
 Compute integral first derivatives, UseDBF=F ICtDFT=           0.
 Calling FoFJK, ICntrl=      2127 FMM=F ISym2X=0 I1Cent= 0 IOpClX= 0 NMat=1 NMatS=1 NMatT=0.
 FoFJK:  IHMeth= 1 ICntrl=    2127 DoSepK=F KAlg= 0 I1Cent=           0 FoldK=F
 IRaf=         0 NMat=       1 IRICut=       1 DoRegI=T DoRafI=F ISym2E= 0 IDoP0=0 IntGTp=1.
 FoFCou: FMM=F IPFlag=           0 FMFlag=      100000 FMFlg1=         800
         NFxFlg=           0 DoJE=F BraDBF=F KetDBF=F FulRan=T
         wScrn=  0.000000 ICntrl=      2127 IOpCl=  0 I1Cent=           0 NGrid=           0
         NMat0=    1 NMatS0=      1 NMatT0=    0 NMatD0=    1 NMtDS0=    0 NMtDT0=    0
 Symmetry not used in FoFCou.
 Leave Link  703 at Thu Dec  7 02:04:57 2023, MaxMem= 13421772800 cpu:               9.4 elap:               0.3
 (Enter /public/software/apps/Gaussian/g16/l716.exe)
 Dipole        =-9.66481779D-06 1.72082738D-01-4.93917933D-06
 ***** Axes restored to original set *****
 -------------------------------------------------------------------
 Center     Atomic                   Forces (Hartrees/Bohr)
 Number     Number              X              Y              Z
 -------------------------------------------------------------------
      1        6           0.000109213    0.000013855    0.000016296
      2        6          -0.000154885   -0.000023333   -0.000026156
      3        6          -0.000021754   -0.000006304   -0.000001370
      4        6          -0.000142435   -0.000067880   -0.000027711
      5        6           0.000099780    0.000049877    0.000019982
      6        1           0.000063726   -0.000014748    0.000010254
      7        1           0.000000307    0.000007377    0.000000315
      8        1          -0.000005433   -0.000000663    0.000021042
      9        1           0.000002497   -0.000000221   -0.000021478
     10        1           0.000004513   -0.000005840    0.000000330
     11        1           0.000044471    0.000047880    0.000008497
 -------------------------------------------------------------------
 Cartesian Forces:  Max     0.000154885 RMS     0.000051168
 Leave Link  716 at Thu Dec  7 02:04:57 2023, MaxMem= 13421772800 cpu:               0.3 elap:               0.0
 (Enter /public/software/apps/Gaussian/g16/l103.exe)

 GradGradGradGradGradGradGradGradGradGradGradGradGradGradGradGradGradGrad
 Berny optimization.
 Using GEDIIS/GDIIS optimizer.
 FormGI is forming the generalized inverse of G from B-inverse, IUseBI=4.
 Internal  Forces:  Max     0.000165623 RMS     0.000037404
 Search for a local minimum.
 Step number   4 out of a maximum of   63
 All quantities printed in internal units (Hartrees-Bohrs-Radians)
 RMS Force = .37404D-04 SwitMx=.10000D-02 MixMth= 2
 Mixed Optimization -- En-DIIS/RFO-DIIS
 Swapping is turned off.
 Update second derivatives using D2CorX and points    1    2    3    4
 DE= -6.32D-06 DEPred=-6.64D-06 R= 9.52D-01
 TightC=F SS=  1.41D+00  RLast= 1.18D-02 DXNew= 6.3572D-01 3.5316D-02
 Trust test= 9.52D-01 RLast= 1.18D-02 DXMaxT set to 3.78D-01
 ITU=  1  1  1  0
     Eigenvalues ---    0.01014   0.01474   0.01681   0.02058   0.02154
     Eigenvalues ---    0.02462   0.05349   0.05509   0.08662   0.09834
     Eigenvalues ---    0.14811   0.16000   0.16000   0.16060   0.22000
     Eigenvalues ---    0.26165   0.29800   0.31459   0.34127   0.34378
     Eigenvalues ---    0.36065   0.36074   0.36248   0.36412   0.40753
     Eigenvalues ---    0.51951   0.60638
 En-DIIS/RFO-DIIS/Sim-DIIS IScMMF=       -3 using points:     4    3    2
 RFO step:  Lambda=-1.90017717D-07.
 NNeg= 0 NGDIIS= 3 SimSw=  2.50D-01 Rises=F DC= -6.32D-06 SmlDif=  1.00D-05
 NRisDI= 0 DoIntr=F SqrtH=F CThrHd= 10.0 CDAdj=  3.0
 RMS Error=  0.1196107972D-03 NUsed= 3 OKEnD=F EnDIS=F
 InvSVX:  RCond= 4.42D-06 Info=           0 Equed=N FErr=  1.54D-15 BErr=  6.65D-17
 DidBck=F Rises=F RFO-DIIS coefs:    0.96510    0.04540   -0.01050
 Iteration  1 RMS(Cart)=  0.00017023 RMS(Int)=  0.00000004
 Iteration  2 RMS(Cart)=  0.00000002 RMS(Int)=  0.00000003
 ITry= 1 IFail=0 DXMaxC= 7.21D-04 DCOld= 1.00D+10 DXMaxT= 3.78D-01 DXLimC= 3.00D+00 Rises=F
 Variable       Old X    -DE/DX   Delta X   Delta X   Delta X     New X
                                 (Linear)    (Quad)   (Total)
    R1        2.54845   0.00016   0.00005   0.00021   0.00026   2.54871
    R2        2.77757  -0.00003  -0.00003  -0.00004  -0.00007   2.77750
    R3        2.05027   0.00003   0.00003   0.00004   0.00007   2.05034
    R4        2.84675   0.00002   0.00004  -0.00001   0.00003   2.84677
    R5        2.04779   0.00001  -0.00001   0.00003   0.00002   2.04781
    R6        2.84675   0.00002   0.00004  -0.00001   0.00003   2.84677
    R7        2.08006   0.00002   0.00001   0.00004   0.00005   2.08010
    R8        2.08006   0.00002   0.00001   0.00004   0.00005   2.08010
    R9        2.54845   0.00017   0.00005   0.00021   0.00026   2.54871
   R10        2.04779   0.00001  -0.00001   0.00003   0.00002   2.04781
   R11        2.05027   0.00003   0.00003   0.00004   0.00007   2.05034
    A1        1.90798  -0.00001  -0.00003   0.00001  -0.00002   1.90796
    A2        2.20465   0.00007   0.00001   0.00036   0.00037   2.20502
    A3        2.17056  -0.00006   0.00002  -0.00038  -0.00035   2.17021
    A4        1.90330   0.00001   0.00008  -0.00006   0.00002   1.90332
    A5        2.21692  -0.00001  -0.00004   0.00000  -0.00004   2.21688
    A6        2.16297  -0.00000  -0.00004   0.00006   0.00002   2.16298
    A7        1.80221   0.00000  -0.00011   0.00010  -0.00001   1.80220
    A8        1.95426  -0.00000   0.00002  -0.00004  -0.00002   1.95424
    A9        1.95426  -0.00000   0.00002  -0.00005  -0.00003   1.95423
   A10        1.95425  -0.00000   0.00002  -0.00004  -0.00002   1.95424
   A11        1.95426  -0.00000   0.00002  -0.00005  -0.00003   1.95423
   A12        1.84778   0.00001   0.00003   0.00008   0.00011   1.84789
   A13        1.90330   0.00001   0.00008  -0.00006   0.00002   1.90332
   A14        2.16296   0.00000  -0.00004   0.00006   0.00002   2.16298
   A15        2.21692  -0.00001  -0.00004   0.00000  -0.00004   2.21688
   A16        1.90798  -0.00001  -0.00003   0.00001  -0.00002   1.90796
   A17        2.17056  -0.00006   0.00002  -0.00038  -0.00035   2.17021
   A18        2.20465   0.00007   0.00001   0.00036   0.00037   2.20502
    D1        0.00001  -0.00000  -0.00000  -0.00001  -0.00001  -0.00001
    D2       -3.14158  -0.00000  -0.00000  -0.00002  -0.00002   3.14159
    D3        3.14159   0.00000   0.00000   0.00001   0.00001  -3.14159
    D4       -0.00000   0.00000   0.00000   0.00000   0.00000   0.00000
    D5       -0.00002   0.00000   0.00000   0.00004   0.00004   0.00002
    D6        3.14159   0.00000   0.00000   0.00001   0.00001  -3.14159
    D7        3.14158   0.00000   0.00000   0.00002   0.00002  -3.14158
    D8        0.00000  -0.00000  -0.00000  -0.00001  -0.00001  -0.00000
    D9        0.00001  -0.00000  -0.00000  -0.00002  -0.00002  -0.00001
   D10        2.10546  -0.00000  -0.00003  -0.00003  -0.00006   2.10540
   D11       -2.10545   0.00000   0.00003   0.00001   0.00004  -2.10541
   D12       -3.14158  -0.00000  -0.00000  -0.00001  -0.00002   3.14159
   D13       -1.03614  -0.00000  -0.00003  -0.00002  -0.00005  -1.03619
   D14        1.03614   0.00000   0.00003   0.00001   0.00004   1.03618
   D15       -0.00002   0.00000   0.00000   0.00004   0.00005   0.00002
   D16        3.14159   0.00000   0.00000   0.00001   0.00001  -3.14159
   D17       -2.10548   0.00000   0.00003   0.00006   0.00009  -2.10539
   D18        1.03614   0.00000   0.00003   0.00002   0.00005   1.03619
   D19        2.10543  -0.00000  -0.00003   0.00002  -0.00001   2.10542
   D20       -1.03614  -0.00000  -0.00003  -0.00001  -0.00004  -1.03618
   D21        0.00003  -0.00000  -0.00000  -0.00005  -0.00006  -0.00003
   D22       -3.14158  -0.00000  -0.00000  -0.00002  -0.00002   3.14158
   D23       -3.14158  -0.00000  -0.00000  -0.00002  -0.00002   3.14158
   D24       -0.00001   0.00000   0.00000   0.00001   0.00001   0.00001
         Item               Value     Threshold  Converged?
 Maximum Force            0.000166     0.000450     YES
 RMS     Force            0.000037     0.000300     YES
 Maximum Displacement     0.000721     0.001800     YES
 RMS     Displacement     0.000170     0.001200     YES
 Predicted change in Energy=-9.497018D-08
 Optimization completed.
    -- Stationary point found.
                           ----------------------------
                           !   Optimized Parameters   !
                           ! (Angstroms and Degrees)  !
 --------------------------                            --------------------------
 ! Name  Definition              Value          Derivative Info.                !
 --------------------------------------------------------------------------------
 ! R1    R(1,2)                  1.3486         -DE/DX =    0.0002              !
 ! R2    R(1,5)                  1.4698         -DE/DX =    0.0                 !
 ! R3    R(1,6)                  1.085          -DE/DX =    0.0                 !
 ! R4    R(2,3)                  1.5064         -DE/DX =    0.0                 !
 ! R5    R(2,7)                  1.0836         -DE/DX =    0.0                 !
 ! R6    R(3,4)                  1.5064         -DE/DX =    0.0                 !
 ! R7    R(3,8)                  1.1007         -DE/DX =    0.0                 !
 ! R8    R(3,9)                  1.1007         -DE/DX =    0.0                 !
 ! R9    R(4,5)                  1.3486         -DE/DX =    0.0002              !
 ! R10   R(4,10)                 1.0836         -DE/DX =    0.0                 !
 ! R11   R(5,11)                 1.085          -DE/DX =    0.0                 !
 ! A1    A(2,1,5)              109.3192         -DE/DX =    0.0                 !
 ! A2    A(2,1,6)              126.3169         -DE/DX =    0.0001              !
 ! A3    A(5,1,6)              124.3639         -DE/DX =   -0.0001              !
 ! A4    A(1,2,3)              109.0511         -DE/DX =    0.0                 !
 ! A5    A(1,2,7)              127.0201         -DE/DX =    0.0                 !
 ! A6    A(3,2,7)              123.9288         -DE/DX =    0.0                 !
 ! A7    A(2,3,4)              103.2593         -DE/DX =    0.0                 !
 ! A8    A(2,3,8)              111.9707         -DE/DX =    0.0                 !
 ! A9    A(2,3,9)              111.9709         -DE/DX =    0.0                 !
 ! A10   A(4,3,8)              111.9705         -DE/DX =    0.0                 !
 ! A11   A(4,3,9)              111.971          -DE/DX =    0.0                 !
 ! A12   A(8,3,9)              105.8701         -DE/DX =    0.0                 !
 ! A13   A(3,4,5)              109.0511         -DE/DX =    0.0                 !
 ! A14   A(3,4,10)             123.9287         -DE/DX =    0.0                 !
 ! A15   A(5,4,10)             127.0202         -DE/DX =    0.0                 !
 ! A16   A(1,5,4)              109.3193         -DE/DX =    0.0                 !
 ! A17   A(1,5,11)             124.3638         -DE/DX =   -0.0001              !
 ! A18   A(4,5,11)             126.3169         -DE/DX =    0.0001              !
 ! D1    D(5,1,2,3)              0.0004         -DE/DX =    0.0                 !
 ! D2    D(5,1,2,7)            180.0005         -DE/DX =    0.0                 !
 ! D3    D(6,1,2,3)           -180.0002         -DE/DX =    0.0                 !
 ! D4    D(6,1,2,7)             -0.0001         -DE/DX =    0.0                 !
 ! D5    D(2,1,5,4)             -0.0014         -DE/DX =    0.0                 !
 ! D6    D(2,1,5,11)          -180.0004         -DE/DX =    0.0                 !
 ! D7    D(6,1,5,4)           -180.0007         -DE/DX =    0.0                 !
 ! D8    D(6,1,5,11)             0.0002         -DE/DX =    0.0                 !
 ! D9    D(1,2,3,4)              0.0006         -DE/DX =    0.0                 !
 ! D10   D(1,2,3,8)            120.6339         -DE/DX =    0.0                 !
 ! D11   D(1,2,3,9)           -120.6335         -DE/DX =    0.0                 !
 ! D12   D(7,2,3,4)            180.0005         -DE/DX =    0.0                 !
 ! D13   D(7,2,3,8)            -59.3662         -DE/DX =    0.0                 !
 ! D14   D(7,2,3,9)             59.3664         -DE/DX =    0.0                 !
 ! D15   D(2,3,4,5)             -0.0014         -DE/DX =    0.0                 !
 ! D16   D(2,3,4,10)          -180.0004         -DE/DX =    0.0                 !
 ! D17   D(8,3,4,5)           -120.6348         -DE/DX =    0.0                 !
 ! D18   D(8,3,4,10)            59.3662         -DE/DX =    0.0                 !
 ! D19   D(9,3,4,5)            120.6325         -DE/DX =    0.0                 !
 ! D20   D(9,3,4,10)           -59.3664         -DE/DX =    0.0                 !
 ! D21   D(3,4,5,1)              0.0017         -DE/DX =    0.0                 !
 ! D22   D(3,4,5,11)           180.0007         -DE/DX =    0.0                 !
 ! D23   D(10,4,5,1)           180.0006         -DE/DX =    0.0                 !
 ! D24   D(10,4,5,11)           -0.0004         -DE/DX =    0.0                 !
 --------------------------------------------------------------------------------
 Lowest energy point so far.  Saving SCF results.
 Largest change from initial coordinates is atom    6       3.258 Angstoms.
 GradGradGradGradGradGradGradGradGradGradGradGradGradGradGradGradGradGrad

 Leave Link  103 at Thu Dec  7 02:04:57 2023, MaxMem= 13421772800 cpu:              11.6 elap:               0.4
 (Enter /public/software/apps/Gaussian/g16/l202.exe)
                          Input orientation:                          
 ---------------------------------------------------------------------
 Center     Atomic      Atomic             Coordinates (Angstroms)
 Number     Number       Type             X           Y           Z
 ---------------------------------------------------------------------
      1          6           0        0.811586    1.014846    0.153381
      2          6           0       -0.517942    1.076431   -0.063957
      3          6           0       -1.062410   -0.323283   -0.180991
      4          6           0        0.159025   -1.185630    0.002842
      5          6           0        1.232827   -0.392711    0.194927
      6          1           0        1.481724    1.858632    0.280133
      7          1           0       -1.124907    1.970368   -0.146147
      8          1           0       -1.831277   -0.530947    0.578813
      9          1           0       -1.546391   -0.496863   -1.154240
     10          1           0        0.143780   -2.268906   -0.020963
     11          1           0        2.253986   -0.721835    0.356304
 ---------------------------------------------------------------------
                    Distance matrix (angstroms):
                    1          2          3          4          5
     1  C    0.000000
     2  C    1.348582   0.000000
     3  C    2.326855   1.506434   0.000000
     4  C    2.300129   2.362132   1.506433   0.000000
     5  C    1.469826   2.300129   2.326854   1.348580   0.000000
     6  H    1.084955   2.174604   3.383195   3.330760   2.266662
     7  H    2.180078   1.083644   2.294767   3.410426   3.355501
     8  H    3.091147   2.172939   1.100719   2.172937   3.091151
     9  H    3.091147   2.172942   1.100719   2.172944   3.091142
    10  H    3.355501   3.410426   2.294766   1.083645   2.180078
    11  H    2.266662   3.330760   3.383195   2.174604   1.084956
                    6          7          8          9         10
     6  H    0.000000
     7  H    2.643619   0.000000
     8  H    4.095763   2.698352   0.000000
     9  H    4.095762   2.698357   1.756643   0.000000
    10  H    4.349406   4.426814   2.698348   2.698357   0.000000
    11  H    2.694624   4.349405   4.095769   4.095756   2.643620
                   11
    11  H    0.000000
 Stoichiometry    C5H6
 Framework group  C1[X(C5H6)]
 Deg. of freedom    27
 Full point group                 C1      NOp   1
 RotChk:  IX=1 Diff= 1.48D-13
 Largest Abelian subgroup         C1      NOp   1
 Largest concise Abelian subgroup C1      NOp   1
                         Standard orientation:                         
 ---------------------------------------------------------------------
 Center     Atomic      Atomic             Coordinates (Angstroms)
 Number     Number       Type             X           Y           Z
 ---------------------------------------------------------------------
      1          6           0        0.734969   -0.990892    0.000005
      2          6           0        1.181050    0.281776    0.000001
      3          6           0       -0.000069    1.216816   -0.000005
      4          6           0       -1.181082    0.281642    0.000010
      5          6           0       -0.734857   -0.990975   -0.000009
      6          1           0        1.347419   -1.886455    0.000007
      7          1           0        2.213373    0.611314    0.000001
      8          1           0       -0.000105    1.880246    0.878312
      9          1           0       -0.000108    1.880236   -0.878331
     10          1           0       -2.213441    0.611064    0.000015
     11          1           0       -1.347205   -1.886607   -0.000015
 ---------------------------------------------------------------------
 Rotational constants (GHZ):           8.4476447           8.2136418           4.2740306
 Leave Link  202 at Thu Dec  7 02:04:57 2023, MaxMem= 13421772800 cpu:               0.2 elap:               0.0
 (Enter /public/software/apps/Gaussian/g16/l601.exe)
 Copying SCF densities to generalized density rwf, IOpCl= 0 IROHF=0.

 **********************************************************************

            Population analysis using the SCF Density.

 **********************************************************************

 Orbital symmetries:
       Occupied  (A) (A) (A) (A) (A) (A) (A) (A) (A) (A) (A) (A)
                 (A) (A) (A) (A) (A) (A)
       Virtual   (A) (A) (A) (A) (A) (A) (A) (A) (A) (A) (A) (A)
                 (A) (A) (A) (A) (A) (A) (A) (A) (A) (A) (A) (A)
                 (A) (A) (A) (A) (A) (A) (A) (A) (A) (A) (A) (A)
                 (A) (A) (A) (A) (A) (A) (A) (A) (A) (A) (A) (A)
                 (A) (A) (A) (A) (A) (A) (A) (A) (A) (A) (A) (A)
                 (A) (A) (A) (A) (A) (A) (A) (A) (A)
 The electronic state is 1-A.
 Alpha  occ. eigenvalues --  -10.18823 -10.17938 -10.17909 -10.17796 -10.17793
 Alpha  occ. eigenvalues --   -0.84733  -0.69744  -0.69694  -0.54591  -0.52434
 Alpha  occ. eigenvalues --   -0.50749  -0.43002  -0.39284  -0.36821  -0.35352
 Alpha  occ. eigenvalues --   -0.35215  -0.29354  -0.21156
 Alpha virt. eigenvalues --   -0.00974   0.08998   0.11361   0.14491   0.16828
 Alpha virt. eigenvalues --    0.17371   0.17527   0.17845   0.20677   0.24027
 Alpha virt. eigenvalues --    0.33985   0.35427   0.44507   0.54971   0.55238
 Alpha virt. eigenvalues --    0.58411   0.58464   0.60190   0.61064   0.62254
 Alpha virt. eigenvalues --    0.65298   0.66585   0.68650   0.73598   0.74153
 Alpha virt. eigenvalues --    0.81049   0.85221   0.85770   0.86083   0.88105
 Alpha virt. eigenvalues --    0.92338   0.92422   0.93789   1.04048   1.14486
 Alpha virt. eigenvalues --    1.17154   1.27361   1.38818   1.40066   1.45530
 Alpha virt. eigenvalues --    1.46460   1.47664   1.54117   1.69390   1.83819
 Alpha virt. eigenvalues --    1.86960   1.94164   1.98997   2.02690   2.04356
 Alpha virt. eigenvalues --    2.10005   2.16063   2.24332   2.28324   2.29690
 Alpha virt. eigenvalues --    2.38471   2.49222   2.50347   2.59064   2.63669
 Alpha virt. eigenvalues --    2.70592   2.80471   2.94399   2.99712   4.09585
 Alpha virt. eigenvalues --    4.15791   4.17750   4.46597   4.49033
          Condensed to atoms (all electrons):
               1          2          3          4          5          6
     1  C    4.844331   0.660706  -0.070611  -0.033442   0.431271   0.362448
     2  C    0.660706   4.951417   0.382674  -0.097433  -0.033442  -0.053374
     3  C   -0.070611   0.382674   5.106401   0.382674  -0.070611   0.008653
     4  C   -0.033442  -0.097433   0.382674   4.951416   0.660706   0.005263
     5  C    0.431271  -0.033442  -0.070611   0.660706   4.844330  -0.047376
     6  H    0.362448  -0.053374   0.008653   0.005263  -0.047376   0.605937
     7  H   -0.039598   0.364272  -0.049791   0.004623   0.005960  -0.004306
     8  H    0.000546  -0.025478   0.348833  -0.025478   0.000546  -0.000180
     9  H    0.000546  -0.025477   0.348833  -0.025477   0.000546  -0.000180
    10  H    0.005960   0.004623  -0.049791   0.364272  -0.039598  -0.000155
    11  H   -0.047376   0.005263   0.008653  -0.053374   0.362448  -0.001969
               7          8          9         10         11
     1  C   -0.039598   0.000546   0.000546   0.005960  -0.047376
     2  C    0.364272  -0.025478  -0.025477   0.004623   0.005263
     3  C   -0.049791   0.348833   0.348833  -0.049791   0.008653
     4  C    0.004623  -0.025478  -0.025477   0.364272  -0.053374
     5  C    0.005960   0.000546   0.000546  -0.039598   0.362448
     6  H   -0.004306  -0.000180  -0.000180  -0.000155  -0.001969
     7  H    0.589412   0.000409   0.000409  -0.000092  -0.000155
     8  H    0.000409   0.567573  -0.034396   0.000409  -0.000180
     9  H    0.000409  -0.034396   0.567569   0.000409  -0.000180
    10  H   -0.000092   0.000409   0.000409   0.589412  -0.004306
    11  H   -0.000155  -0.000180  -0.000180  -0.004306   0.605938
 Mulliken charges:
               1
     1  C   -0.114781
     2  C   -0.133751
     3  C   -0.345917
     4  C   -0.133750
     5  C   -0.114780
     6  H    0.125239
     7  H    0.128855
     8  H    0.167395
     9  H    0.167396
    10  H    0.128855
    11  H    0.125239
 Sum of Mulliken charges =  -0.00000
 Mulliken charges with hydrogens summed into heavy atoms:
               1
     1  C    0.010459
     2  C   -0.004896
     3  C   -0.011126
     4  C   -0.004895
     5  C    0.010459
 Electronic spatial extent (au):  <R**2>=            331.8070
 Charge=             -0.0000 electrons
 Dipole moment (field-independent basis, Debye):
    X=             -0.0000    Y=              0.4374    Z=             -0.0000  Tot=              0.4374
 Quadrupole moment (field-independent basis, Debye-Ang):
   XX=            -28.2817   YY=            -26.8916   ZZ=            -32.0925
   XY=             -0.0001   XZ=             -0.0000   YZ=             -0.0000
 Traceless Quadrupole moment (field-independent basis, Debye-Ang):
   XX=              0.8069   YY=              2.1970   ZZ=             -3.0039
   XY=             -0.0001   XZ=             -0.0000   YZ=             -0.0000
 Octapole moment (field-independent basis, Debye-Ang**2):
  XXX=             -0.0000  YYY=             -1.7854  ZZZ=             -0.0001  XYY=              0.0001
  XXY=              0.2246  XXZ=              0.0000  XZZ=             -0.0001  YZZ=              2.3386
  YYZ=             -0.0001  XYZ=             -0.0001
 Hexadecapole moment (field-independent basis, Debye-Ang**3):
 XXXX=           -192.1920 YYYY=           -195.3016 ZZZZ=            -39.8916 XXXY=              0.0000
 XXXZ=             -0.0001 YYYX=              0.0001 YYYZ=             -0.0000 ZZZX=             -0.0000
 ZZZY=             -0.0001 XXYY=            -64.3323 XXZZ=            -45.6209 YYZZ=            -40.0210
 XXYZ=              0.0000 YYXZ=              0.0000 ZZXY=             -0.0003
 N-N= 1.564314438497D+02 E-N=-7.619529599403D+02  KE= 1.921757954479D+02
 No NMR shielding tensors so no spin-rotation constants.
 Leave Link  601 at Thu Dec  7 02:04:57 2023, MaxMem= 13421772800 cpu:               4.9 elap:               0.2
 (Enter /public/software/apps/Gaussian/g16/l9999.exe)
 Unable to Open any file for archive entry.
 1\1\GINC-NODE16\FOpt\RB3LYP\6-31G(d)\C5H6\LJQ_HG\07-Dec-2023\0\\#p opt
  freq b3lyp/6-31g* em=gd3bj\\$$$$Singlemol####0????\\0,1\C,0.811585640
 9,1.014845765,0.1533805848\C,-0.517942217,1.0764306274,-0.0639569621\C
 ,-1.0624103916,-0.3232834983,-0.1809905785\C,0.1590249619,-1.185630499
 7,0.0028415705\C,1.232827413,-0.3927113867,0.1949268511\H,1.4817241524
 ,1.8586321676,0.2801330596\H,-1.1249066329,1.9703680463,-0.1461473835\
 H,-1.8312770943,-0.5309470767,0.5788130191\H,-1.5463912007,-0.49686281
 19,-1.1542404099\H,0.1437797231,-2.2689063095,-0.0209634345\H,2.253985
 6452,-0.7218350235,0.3563036835\\Version=ES64L-G16RevC.01\State=1-A\HF
 =-194.1159204\RMSD=7.019e-09\RMSF=5.117e-05\Dipole=-0.1624845,-0.04944
 42,-0.0276863\Quadrupole=1.4468123,0.6841892,-2.1310015,0.2714693,0.61
 02769,0.1020006\PG=C01 [X(C5H6)]\\@
 The archive entry for this job was punched.


 EVERYBODY NEEDS BEAUTY AS WELL AS BREAD, PLACES TO PLAY IN AND PRAY IN,
 WHERE NATURE MAY HEAL AND CHEER AND GIVE STRENGTH TO BODY AND SOUL ALIKE.

                                    -- JOHN MUIR
 Leave Link 9999 at Thu Dec  7 02:04:57 2023, MaxMem= 13421772800 cpu:               0.3 elap:               0.0
 Job cpu time:       0 days  0 hours  3 minutes 46.5 seconds.
 Elapsed time:       0 days  0 hours  0 minutes  8.0 seconds.
 File lengths (MBytes):  RWF=     22 Int=      0 D2E=      0 Chk=      3 Scr=      2
 Normal termination of Gaussian 16 at Thu Dec  7 02:04:57 2023.
 (Enter /public/software/apps/Gaussian/g16/l1.exe)
 Link1:  Proceeding to internal job step number  2.
 --------------------------------------------------------------------
 #P Geom=AllCheck Guess=TCheck SCRF=Check GenChk RB3LYP/6-31G(d) Freq
 --------------------------------------------------------------------
 1/10=4,29=7,30=1,38=1,40=1/1,3;
 2/12=2,40=1/2;
 3/5=1,6=6,7=1,11=2,14=-4,25=1,30=1,70=2,71=2,74=-5,116=1,124=41,140=1/1,2,3;
 4/5=101/1;
 5/5=2,38=6,98=1/2;
 8/6=4,10=90,11=11/1;
 11/6=1,8=1,9=11,15=111,16=1/1,2,10;
 10/6=1/2;
 6/7=2,8=2,9=2,10=2,28=1/1;
 7/8=1,10=1,25=1/1,2,3,16;
 1/10=4,30=1/3;
 99//99;
 Leave Link    1 at Thu Dec  7 02:04:58 2023, MaxMem= 13421772800 cpu:               0.6 elap:               0.0
 (Enter /public/software/apps/Gaussian/g16/l101.exe)
 Structure from the checkpoint file:  "/public/home/LJQ_HG/tmp/Gau-81757.chk"
 ----------------------
 $$$$Singlemol####0????
 ----------------------
 Charge =  0 Multiplicity = 1
 Redundant internal coordinates found in file.  (old form).
 C,0,0.8115856409,1.014845765,0.1533805848
 C,0,-0.517942217,1.0764306274,-0.0639569621
 C,0,-1.0624103916,-0.3232834983,-0.1809905785
 C,0,0.1590249619,-1.1856304997,0.0028415705
 C,0,1.232827413,-0.3927113867,0.1949268511
 H,0,1.4817241524,1.8586321676,0.2801330596
 H,0,-1.1249066329,1.9703680463,-0.1461473835
 H,0,-1.8312770943,-0.5309470767,0.5788130191
 H,0,-1.5463912007,-0.4968628119,-1.1542404099
 H,0,0.1437797231,-2.2689063095,-0.0209634345
 H,0,2.2539856452,-0.7218350235,0.3563036835
 Recover connectivity data from disk.
 ITRead=  0  0  0  0  0  0  0  0  0  0  0
 MicOpt= -1 -1 -1 -1 -1 -1 -1 -1 -1 -1 -1
 NAtoms=     11 NQM=       11 NQMF=       0 NMMI=      0 NMMIF=      0
                NMic=       0 NMicF=      0.
                    Isotopes and Nuclear Properties:
 (Nuclear quadrupole moments (NQMom) in fm**2, nuclear magnetic moments (NMagM)
  in nuclear magnetons)

  Atom         1           2           3           4           5           6           7           8           9          10
 IAtWgt=          12          12          12          12          12           1           1           1           1           1
 AtmWgt=  12.0000000  12.0000000  12.0000000  12.0000000  12.0000000   1.0078250   1.0078250   1.0078250   1.0078250   1.0078250
 NucSpn=           0           0           0           0           0           1           1           1           1           1
 AtZEff=   3.6000000   3.6000000   3.6000000   3.6000000   3.6000000   1.0000000   1.0000000   1.0000000   1.0000000   1.0000000
 NQMom=    0.0000000   0.0000000   0.0000000   0.0000000   0.0000000   0.0000000   0.0000000   0.0000000   0.0000000   0.0000000
 NMagM=    0.0000000   0.0000000   0.0000000   0.0000000   0.0000000   2.7928460   2.7928460   2.7928460   2.7928460   2.7928460
 AtZNuc=   6.0000000   6.0000000   6.0000000   6.0000000   6.0000000   1.0000000   1.0000000   1.0000000   1.0000000   1.0000000

  Atom        11
 IAtWgt=           1
 AtmWgt=   1.0078250
 NucSpn=           1
 AtZEff=   1.0000000
 NQMom=    0.0000000
 NMagM=    2.7928460
 AtZNuc=   1.0000000
 Leave Link  101 at Thu Dec  7 02:04:58 2023, MaxMem= 13421772800 cpu:               6.1 elap:               0.2
 (Enter /public/software/apps/Gaussian/g16/l103.exe)

 GradGradGradGradGradGradGradGradGradGradGradGradGradGradGradGradGradGrad
 Berny optimization.
 Initialization pass.
                           ----------------------------
                           !    Initial Parameters    !
                           ! (Angstroms and Degrees)  !
 --------------------------                            --------------------------
 ! Name  Definition              Value          Derivative Info.                !
 --------------------------------------------------------------------------------
 ! R1    R(1,2)                  1.3486         calculate D2E/DX2 analytically  !
 ! R2    R(1,5)                  1.4698         calculate D2E/DX2 analytically  !
 ! R3    R(1,6)                  1.085          calculate D2E/DX2 analytically  !
 ! R4    R(2,3)                  1.5064         calculate D2E/DX2 analytically  !
 ! R5    R(2,7)                  1.0836         calculate D2E/DX2 analytically  !
 ! R6    R(3,4)                  1.5064         calculate D2E/DX2 analytically  !
 ! R7    R(3,8)                  1.1007         calculate D2E/DX2 analytically  !
 ! R8    R(3,9)                  1.1007         calculate D2E/DX2 analytically  !
 ! R9    R(4,5)                  1.3486         calculate D2E/DX2 analytically  !
 ! R10   R(4,10)                 1.0836         calculate D2E/DX2 analytically  !
 ! R11   R(5,11)                 1.085          calculate D2E/DX2 analytically  !
 ! A1    A(2,1,5)              109.3192         calculate D2E/DX2 analytically  !
 ! A2    A(2,1,6)              126.3169         calculate D2E/DX2 analytically  !
 ! A3    A(5,1,6)              124.3639         calculate D2E/DX2 analytically  !
 ! A4    A(1,2,3)              109.0511         calculate D2E/DX2 analytically  !
 ! A5    A(1,2,7)              127.0201         calculate D2E/DX2 analytically  !
 ! A6    A(3,2,7)              123.9288         calculate D2E/DX2 analytically  !
 ! A7    A(2,3,4)              103.2593         calculate D2E/DX2 analytically  !
 ! A8    A(2,3,8)              111.9707         calculate D2E/DX2 analytically  !
 ! A9    A(2,3,9)              111.9709         calculate D2E/DX2 analytically  !
 ! A10   A(4,3,8)              111.9705         calculate D2E/DX2 analytically  !
 ! A11   A(4,3,9)              111.971          calculate D2E/DX2 analytically  !
 ! A12   A(8,3,9)              105.8701         calculate D2E/DX2 analytically  !
 ! A13   A(3,4,5)              109.0511         calculate D2E/DX2 analytically  !
 ! A14   A(3,4,10)             123.9287         calculate D2E/DX2 analytically  !
 ! A15   A(5,4,10)             127.0202         calculate D2E/DX2 analytically  !
 ! A16   A(1,5,4)              109.3193         calculate D2E/DX2 analytically  !
 ! A17   A(1,5,11)             124.3638         calculate D2E/DX2 analytically  !
 ! A18   A(4,5,11)             126.3169         calculate D2E/DX2 analytically  !
 ! D1    D(5,1,2,3)              0.0004         calculate D2E/DX2 analytically  !
 ! D2    D(5,1,2,7)           -179.9995         calculate D2E/DX2 analytically  !
 ! D3    D(6,1,2,3)            179.9998         calculate D2E/DX2 analytically  !
 ! D4    D(6,1,2,7)             -0.0001         calculate D2E/DX2 analytically  !
 ! D5    D(2,1,5,4)             -0.0014         calculate D2E/DX2 analytically  !
 ! D6    D(2,1,5,11)           179.9996         calculate D2E/DX2 analytically  !
 ! D7    D(6,1,5,4)            179.9993         calculate D2E/DX2 analytically  !
 ! D8    D(6,1,5,11)             0.0002         calculate D2E/DX2 analytically  !
 ! D9    D(1,2,3,4)              0.0006         calculate D2E/DX2 analytically  !
 ! D10   D(1,2,3,8)            120.6339         calculate D2E/DX2 analytically  !
 ! D11   D(1,2,3,9)           -120.6335         calculate D2E/DX2 analytically  !
 ! D12   D(7,2,3,4)           -179.9995         calculate D2E/DX2 analytically  !
 ! D13   D(7,2,3,8)            -59.3662         calculate D2E/DX2 analytically  !
 ! D14   D(7,2,3,9)             59.3664         calculate D2E/DX2 analytically  !
 ! D15   D(2,3,4,5)             -0.0014         calculate D2E/DX2 analytically  !
 ! D16   D(2,3,4,10)           179.9996         calculate D2E/DX2 analytically  !
 ! D17   D(8,3,4,5)           -120.6348         calculate D2E/DX2 analytically  !
 ! D18   D(8,3,4,10)            59.3662         calculate D2E/DX2 analytically  !
 ! D19   D(9,3,4,5)            120.6325         calculate D2E/DX2 analytically  !
 ! D20   D(9,3,4,10)           -59.3664         calculate D2E/DX2 analytically  !
 ! D21   D(3,4,5,1)              0.0017         calculate D2E/DX2 analytically  !
 ! D22   D(3,4,5,11)          -179.9993         calculate D2E/DX2 analytically  !
 ! D23   D(10,4,5,1)          -179.9994         calculate D2E/DX2 analytically  !
 ! D24   D(10,4,5,11)           -0.0004         calculate D2E/DX2 analytically  !
 --------------------------------------------------------------------------------
 Trust Radius=3.00D-01 FncErr=1.00D-07 GrdErr=1.00D-07 EigMax=2.50D+02 EigMin=1.00D-04
 Number of steps in this run=      2 maximum allowed number of steps=      2.
 GradGradGradGradGradGradGradGradGradGradGradGradGradGradGradGradGradGrad

 Leave Link  103 at Thu Dec  7 02:04:58 2023, MaxMem= 13421772800 cpu:               0.1 elap:               0.0
 (Enter /public/software/apps/Gaussian/g16/l202.exe)
                          Input orientation:                          
 ---------------------------------------------------------------------
 Center     Atomic      Atomic             Coordinates (Angstroms)
 Number     Number       Type             X           Y           Z
 ---------------------------------------------------------------------
      1          6           0        0.811586    1.014846    0.153381
      2          6           0       -0.517942    1.076431   -0.063957
      3          6           0       -1.062410   -0.323283   -0.180991
      4          6           0        0.159025   -1.185630    0.002842
      5          6           0        1.232827   -0.392711    0.194927
      6          1           0        1.481724    1.858632    0.280133
      7          1           0       -1.124907    1.970368   -0.146147
      8          1           0       -1.831277   -0.530947    0.578813
      9          1           0       -1.546391   -0.496863   -1.154240
     10          1           0        0.143780   -2.268906   -0.020963
     11          1           0        2.253986   -0.721835    0.356304
 ---------------------------------------------------------------------
                    Distance matrix (angstroms):
                    1          2          3          4          5
     1  C    0.000000
     2  C    1.348582   0.000000
     3  C    2.326855   1.506434   0.000000
     4  C    2.300129   2.362132   1.506433   0.000000
     5  C    1.469826   2.300129   2.326854   1.348580   0.000000
     6  H    1.084955   2.174604   3.383195   3.330760   2.266662
     7  H    2.180078   1.083644   2.294767   3.410426   3.355501
     8  H    3.091147   2.172939   1.100719   2.172937   3.091151
     9  H    3.091147   2.172942   1.100719   2.172944   3.091142
    10  H    3.355501   3.410426   2.294766   1.083645   2.180078
    11  H    2.266662   3.330760   3.383195   2.174604   1.084956
                    6          7          8          9         10
     6  H    0.000000
     7  H    2.643619   0.000000
     8  H    4.095763   2.698352   0.000000
     9  H    4.095762   2.698357   1.756643   0.000000
    10  H    4.349406   4.426814   2.698348   2.698357   0.000000
    11  H    2.694624   4.349405   4.095769   4.095756   2.643620
                   11
    11  H    0.000000
 Stoichiometry    C5H6
 Framework group  C1[X(C5H6)]
 Deg. of freedom    27
 Full point group                 C1      NOp   1
 RotChk:  IX=1 Diff= 2.30D-13
 Largest Abelian subgroup         C1      NOp   1
 Largest concise Abelian subgroup C1      NOp   1
                         Standard orientation:                         
 ---------------------------------------------------------------------
 Center     Atomic      Atomic             Coordinates (Angstroms)
 Number     Number       Type             X           Y           Z
 ---------------------------------------------------------------------
      1          6           0        0.734969   -0.990892    0.000005
      2          6           0        1.181050    0.281776    0.000001
      3          6           0       -0.000069    1.216816   -0.000005
      4          6           0       -1.181082    0.281642    0.000010
      5          6           0       -0.734857   -0.990975   -0.000009
      6          1           0        1.347419   -1.886455    0.000007
      7          1           0        2.213373    0.611314    0.000001
      8          1           0       -0.000105    1.880246    0.878312
      9          1           0       -0.000108    1.880236   -0.878331
     10          1           0       -2.213441    0.611064    0.000015
     11          1           0       -1.347205   -1.886607   -0.000015
 ---------------------------------------------------------------------
 Rotational constants (GHZ):           8.4476447           8.2136418           4.2740306
 Leave Link  202 at Thu Dec  7 02:04:58 2023, MaxMem= 13421772800 cpu:               1.3 elap:               0.1
 (Enter /public/software/apps/Gaussian/g16/l301.exe)
 Standard basis: 6-31G(d) (6D, 7F)
 Ernie: Thresh=  0.10000D-02 Tol=  0.10000D-05 Strict=F.
 There are    87 symmetry adapted cartesian basis functions of A   symmetry.
 There are    87 symmetry adapted basis functions of A   symmetry.
    87 basis functions,   164 primitive gaussians,    87 cartesian basis functions
    18 alpha electrons       18 beta electrons
       nuclear repulsion energy       156.4463030347 Hartrees.
 IExCor=  402 DFT=T Ex+Corr=B3LYP ExCW=0 ScaHFX=  0.200000
 ScaDFX=  0.800000  0.720000  1.000000  0.810000 ScalE2=  1.000000  1.000000
 IRadAn=      5 IRanWt=     -1 IRanGd=            0 ICorTp=0 IEmpDi=141
 NAtoms=   11 NActive=   11 NUniq=   11 SFac= 1.00D+00 NAtFMM=   60 NAOKFM=F Big=F
 Integral buffers will be    131072 words long.
 Raffenetti 2 integral format.
 Two-electron integral symmetry is turned on.
 R6Disp:  Grimme-D3(BJ) Dispersion energy=       -0.0148591849 Hartrees.
 Nuclear repulsion after empirical dispersion term =      156.4314438497 Hartrees.
 Leave Link  301 at Thu Dec  7 02:04:58 2023, MaxMem= 13421772800 cpu:               0.5 elap:               0.0
 (Enter /public/software/apps/Gaussian/g16/l302.exe)
 NPDir=0 NMtPBC=     1 NCelOv=     1 NCel=       1 NClECP=     1 NCelD=      1
         NCelK=      1 NCelE2=     1 NClLst=     1 CellRange=     0.0.
 One-electron integrals computed using PRISM.
 One-electron integral symmetry used in STVInt
 NBasis=    87 RedAO= T EigKep=  1.67D-03  NBF=    87
 NBsUse=    87 1.00D-06 EigRej= -1.00D+00 NBFU=    87
 Precomputing XC quadrature grid using
 IXCGrd= 4 IRadAn=           5 IRanWt=          -1 IRanGd=           0 AccXCQ= 0.00D+00.
 Generated NRdTot=       0 NPtTot=           0 NUsed=           0 NTot=          32
 NSgBfM=    87    87    87    87    87 MxSgAt=    11 MxSgA2=    11.
 Leave Link  302 at Thu Dec  7 02:04:58 2023, MaxMem= 13421772800 cpu:               3.6 elap:               0.1
 (Enter /public/software/apps/Gaussian/g16/l303.exe)
 DipDrv:  MaxL=1.
 Leave Link  303 at Thu Dec  7 02:04:58 2023, MaxMem= 13421772800 cpu:               0.6 elap:               0.0
 (Enter /public/software/apps/Gaussian/g16/l401.exe)
 Initial guess from the checkpoint file:  "/public/home/LJQ_HG/tmp/Gau-81757.chk"
 B after Tr=     0.000000   -0.000000   -0.000000
         Rot=    1.000000   -0.000000   -0.000000   -0.000000 Ang=   0.00 deg.
 Guess basis will be translated and rotated to current coordinates.
 JPrj=2 DoOrth=T DoCkMO=T.
 Leave Link  401 at Thu Dec  7 02:04:58 2023, MaxMem= 13421772800 cpu:               1.0 elap:               0.0
 (Enter /public/software/apps/Gaussian/g16/l502.exe)
 Keep R1 ints in memory in canonical form, NReq=36454127.
 FoFCou: FMM=F IPFlag=           0 FMFlag=           0 FMFlg1=           0
         NFxFlg=           0 DoJE=F BraDBF=F KetDBF=F FulRan=T
         wScrn=  0.000000 ICntrl=       600 IOpCl=  0 I1Cent=           0 NGrid=           0
         NMat0=    1 NMatS0=   3828 NMatT0=    0 NMatD0=    1 NMtDS0=    0 NMtDT0=    0
 Symmetry not used in FoFCou.
 Two-electron integral symmetry not used.
 Closed shell SCF:
 Using DIIS extrapolation, IDIIS=  1040.
 NGot= 13421772800 LenX= 13414424771 LenY= 13414416761
 Requested convergence on RMS density matrix=1.00D-08 within 128 cycles.
 Requested convergence on MAX density matrix=1.00D-06.
 Requested convergence on             energy=1.00D-06.
 No special actions if energy rises.

 Cycle   1  Pass 1  IDiag  1:
 E= -194.115920432790    
 DIIS: error= 2.60D-08 at cycle   1 NSaved=   1.
 NSaved= 1 IEnMin= 1 EnMin= -194.115920432790     IErMin= 1 ErrMin= 2.60D-08
 ErrMax= 2.60D-08  0.00D+00 EMaxC= 1.00D-01 BMatC= 5.47D-14 BMatP= 5.47D-14
 IDIUse=1 WtCom= 1.00D+00 WtEn= 0.00D+00
 Coeff-Com:  0.100D+01
 Coeff:      0.100D+01
 Gap=     0.202 Goal=   None    Shift=    0.000
 RMSDP=5.61D-09 MaxDP=1.25D-07              OVMax= 1.37D-07

 SCF Done:  E(RB3LYP) =  -194.115920433     A.U. after    1 cycles
            NFock=  1  Conv=0.56D-08     -V/T= 2.0101
 KE= 1.921757971106D+02 PE=-7.619529616030D+02 EE= 2.192298002099D+02
 Leave Link  502 at Thu Dec  7 02:04:58 2023, MaxMem= 13421772800 cpu:               9.1 elap:               0.3
 (Enter /public/software/apps/Gaussian/g16/l801.exe)
 DoSCS=F DFT=T ScalE2(SS,OS)=  1.000000  1.000000
 Range of M.O.s used for correlation:     1    87
 NBasis=    87 NAE=    18 NBE=    18 NFC=     0 NFV=     0
 NROrb=     87 NOA=    18 NOB=    18 NVA=    69 NVB=    69
 Leave Link  801 at Thu Dec  7 02:04:58 2023, MaxMem= 13421772800 cpu:               1.0 elap:               0.1
 (Enter /public/software/apps/Gaussian/g16/l1101.exe)
 Using compressed storage, NAtomX=    11.
 Will process     12 centers per pass.
 R6Disp: Adding Grimme-D3(BJ) dispersion energy 1st derivatives to the gradient.
 Leave Link 1101 at Thu Dec  7 02:04:59 2023, MaxMem= 13421772800 cpu:               2.5 elap:               0.1
 (Enter /public/software/apps/Gaussian/g16/l1102.exe)
 Symmetrizing basis deriv contribution to polar:
 IMax=3 JMax=2 DiffMx= 0.00D+00
 Leave Link 1102 at Thu Dec  7 02:04:59 2023, MaxMem= 13421772800 cpu:               1.4 elap:               0.1
 (Enter /public/software/apps/Gaussian/g16/l1110.exe)
 Forming Gx(P) for the SCF density, NAtomX=    11.
 Integral derivatives from FoFJK, PRISM(SPDF).
 Do as many integral derivatives as possible in FoFJK.
 G2DrvN: MDV=   13421771531.
 G2DrvN: will do    12 centers at a time, making    1 passes.
 Calling FoFCou, ICntrl=  3107 FMM=F I1Cent=   0 AccDes= 0.00D+00.
 FoFJK:  IHMeth= 1 ICntrl=    3107 DoSepK=F KAlg= 0 I1Cent=           0 FoldK=F
 IRaf=         0 NMat=       1 IRICut=       1 DoRegI=T DoRafI=F ISym2E= 0 IDoP0=0 IntGTp=1.
 FoFCou: FMM=F IPFlag=           0 FMFlag=      100000 FMFlg1=           0
         NFxFlg=           0 DoJE=F BraDBF=F KetDBF=F FulRan=T
         wScrn=  0.000000 ICntrl=      3107 IOpCl=  0 I1Cent=           0 NGrid=           0
         NMat0=    1 NMatS0=      1 NMatT0=    0 NMatD0=    1 NMtDS0=    0 NMtDT0=    0
 Symmetry not used in FoFCou.
 End of G2Drv F.D. properties file   721 does not exist.
 End of G2Drv F.D. properties file   722 does not exist.
 End of G2Drv F.D. properties file   788 does not exist.
 Leave Link 1110 at Thu Dec  7 02:05:00 2023, MaxMem= 13421772800 cpu:              27.3 elap:               0.9
 (Enter /public/software/apps/Gaussian/g16/l1002.exe)
 Minotr:  Closed shell wavefunction.
          IDoAtm=11111111111
          Direct CPHF calculation.
          Differentiating once with respect to electric field.
                with respect to dipole field.
          Differentiating once with respect to nuclear coordinates.
          Requested convergence is 1.0D-08 RMS, and 1.0D-07 maximum.
          Secondary convergence is 1.0D-12 RMS, and 1.0D-12 maximum.
          NewPWx=T KeepS1=F KeepF1=F KeepIn=T MapXYZ=F SortEE=F KeepMc=T.
         3244 words used for storage of precomputed grid.
 Keep R1 ints in memory in canonical form, NReq=36352568.
 FoFCou: FMM=F IPFlag=           0 FMFlag=           0 FMFlg1=           0
         NFxFlg=           0 DoJE=F BraDBF=F KetDBF=F FulRan=T
         wScrn=  0.000000 ICntrl=       600 IOpCl=  0 I1Cent=           0 NGrid=           0
         NMat0=    1 NMatS0=   3828 NMatT0=    0 NMatD0=    1 NMtDS0=    0 NMtDT0=    0
 Symmetry not used in FoFCou.
 Two-electron integral symmetry not used.
          MDV=   13421772800 using IRadAn=       1.
          Solving linear equations simultaneously, MaxMat=       0.
          There are    36 degrees of freedom in the 1st order CPHF.  IDoFFX=6 NUNeed=     3.
     33 vectors produced by pass  0 Test12= 3.45D-15 2.78D-09 XBig12= 6.34D+01 5.23D+00.
 AX will form    33 AO Fock derivatives at one time.
     33 vectors produced by pass  1 Test12= 3.45D-15 2.78D-09 XBig12= 1.04D+01 9.11D-01.
     33 vectors produced by pass  2 Test12= 3.45D-15 2.78D-09 XBig12= 6.39D-02 6.61D-02.
     33 vectors produced by pass  3 Test12= 3.45D-15 2.78D-09 XBig12= 1.11D-04 2.33D-03.
     33 vectors produced by pass  4 Test12= 3.45D-15 2.78D-09 XBig12= 8.49D-08 7.04D-05.
     19 vectors produced by pass  5 Test12= 3.45D-15 2.78D-09 XBig12= 4.41D-11 1.46D-06.
      3 vectors produced by pass  6 Test12= 3.45D-15 2.78D-09 XBig12= 2.59D-14 3.96D-08.
 InvSVY:  IOpt=1 It=  1 EMax= 8.99D-16
 Solved reduced A of dimension   187 with    36 vectors.
 FullF1:  Do perturbations      1 to       3.
 Isotropic polarizability for W=    0.000000       45.89 Bohr**3.
 End of Minotr F.D. properties file   721 does not exist.
 End of Minotr F.D. properties file   722 does not exist.
 End of Minotr F.D. properties file   788 does not exist.
 Leave Link 1002 at Thu Dec  7 02:05:01 2023, MaxMem= 13421772800 cpu:              41.8 elap:               1.3
 (Enter /public/software/apps/Gaussian/g16/l601.exe)
 Copying SCF densities to generalized density rwf, IOpCl= 0 IROHF=0.

 **********************************************************************

            Population analysis using the SCF Density.

 **********************************************************************

 Orbital symmetries:
       Occupied  (A) (A) (A) (A) (A) (A) (A) (A) (A) (A) (A) (A)
                 (A) (A) (A) (A) (A) (A)
       Virtual   (A) (A) (A) (A) (A) (A) (A) (A) (A) (A) (A) (A)
                 (A) (A) (A) (A) (A) (A) (A) (A) (A) (A) (A) (A)
                 (A) (A) (A) (A) (A) (A) (A) (A) (A) (A) (A) (A)
                 (A) (A) (A) (A) (A) (A) (A) (A) (A) (A) (A) (A)
                 (A) (A) (A) (A) (A) (A) (A) (A) (A) (A) (A) (A)
                 (A) (A) (A) (A) (A) (A) (A) (A) (A)
 The electronic state is 1-A.
 Alpha  occ. eigenvalues --  -10.18823 -10.17938 -10.17909 -10.17796 -10.17793
 Alpha  occ. eigenvalues --   -0.84733  -0.69744  -0.69694  -0.54591  -0.52434
 Alpha  occ. eigenvalues --   -0.50749  -0.43002  -0.39284  -0.36821  -0.35352
 Alpha  occ. eigenvalues --   -0.35215  -0.29354  -0.21156
 Alpha virt. eigenvalues --   -0.00974   0.08998   0.11361   0.14491   0.16828
 Alpha virt. eigenvalues --    0.17371   0.17527   0.17845   0.20677   0.24027
 Alpha virt. eigenvalues --    0.33985   0.35427   0.44507   0.54971   0.55238
 Alpha virt. eigenvalues --    0.58411   0.58464   0.60190   0.61064   0.62254
 Alpha virt. eigenvalues --    0.65298   0.66585   0.68650   0.73598   0.74153
 Alpha virt. eigenvalues --    0.81049   0.85221   0.85770   0.86083   0.88105
 Alpha virt. eigenvalues --    0.92338   0.92422   0.93789   1.04048   1.14486
 Alpha virt. eigenvalues --    1.17154   1.27361   1.38818   1.40066   1.45530
 Alpha virt. eigenvalues --    1.46460   1.47664   1.54117   1.69390   1.83819
 Alpha virt. eigenvalues --    1.86960   1.94164   1.98997   2.02690   2.04356
 Alpha virt. eigenvalues --    2.10005   2.16063   2.24332   2.28324   2.29690
 Alpha virt. eigenvalues --    2.38471   2.49222   2.50347   2.59064   2.63669
 Alpha virt. eigenvalues --    2.70592   2.80471   2.94399   2.99712   4.09585
 Alpha virt. eigenvalues --    4.15791   4.17750   4.46597   4.49033
          Condensed to atoms (all electrons):
               1          2          3          4          5          6
     1  C    4.844331   0.660706  -0.070611  -0.033442   0.431271   0.362448
     2  C    0.660706   4.951417   0.382674  -0.097433  -0.033442  -0.053374
     3  C   -0.070611   0.382674   5.106402   0.382674  -0.070611   0.008653
     4  C   -0.033442  -0.097433   0.382674   4.951416   0.660706   0.005263
     5  C    0.431271  -0.033442  -0.070611   0.660706   4.844330  -0.047376
     6  H    0.362448  -0.053374   0.008653   0.005263  -0.047376   0.605937
     7  H   -0.039598   0.364272  -0.049791   0.004623   0.005960  -0.004306
     8  H    0.000546  -0.025478   0.348833  -0.025478   0.000546  -0.000180
     9  H    0.000546  -0.025477   0.348833  -0.025477   0.000546  -0.000180
    10  H    0.005960   0.004623  -0.049791   0.364272  -0.039598  -0.000155
    11  H   -0.047376   0.005263   0.008653  -0.053374   0.362448  -0.001969
               7          8          9         10         11
     1  C   -0.039598   0.000546   0.000546   0.005960  -0.047376
     2  C    0.364272  -0.025478  -0.025477   0.004623   0.005263
     3  C   -0.049791   0.348833   0.348833  -0.049791   0.008653
     4  C    0.004623  -0.025478  -0.025477   0.364272  -0.053374
     5  C    0.005960   0.000546   0.000546  -0.039598   0.362448
     6  H   -0.004306  -0.000180  -0.000180  -0.000155  -0.001969
     7  H    0.589411   0.000409   0.000409  -0.000092  -0.000155
     8  H    0.000409   0.567572  -0.034396   0.000409  -0.000180
     9  H    0.000409  -0.034396   0.567569   0.000409  -0.000180
    10  H   -0.000092   0.000409   0.000409   0.589412  -0.004306
    11  H   -0.000155  -0.000180  -0.000180  -0.004306   0.605937
 Mulliken charges:
               1
     1  C   -0.114781
     2  C   -0.133750
     3  C   -0.345918
     4  C   -0.133750
     5  C   -0.114780
     6  H    0.125239
     7  H    0.128855
     8  H    0.167395
     9  H    0.167396
    10  H    0.128855
    11  H    0.125239
 Sum of Mulliken charges =   0.00000
 Mulliken charges with hydrogens summed into heavy atoms:
               1
     1  C    0.010459
     2  C   -0.004895
     3  C   -0.011127
     4  C   -0.004895
     5  C    0.010459
 APT charges:
               1
     1  C   -0.003891
     2  C   -0.065037
     3  C    0.002531
     4  C   -0.065037
     5  C   -0.003890
     6  H    0.023090
     7  H    0.028070
     8  H    0.016502
     9  H    0.016504
    10  H    0.028070
    11  H    0.023090
 Sum of APT charges =   0.00000
 APT charges with hydrogens summed into heavy atoms:
               1
     1  C    0.019199
     2  C   -0.036967
     3  C    0.035537
     4  C   -0.036968
     5  C    0.019199
 Electronic spatial extent (au):  <R**2>=            331.8069
 Charge=              0.0000 electrons
 Dipole moment (field-independent basis, Debye):
    X=             -0.0000    Y=              0.4374    Z=             -0.0000  Tot=              0.4374
 Quadrupole moment (field-independent basis, Debye-Ang):
   XX=            -28.2817   YY=            -26.8916   ZZ=            -32.0925
   XY=             -0.0001   XZ=             -0.0000   YZ=             -0.0000
 Traceless Quadrupole moment (field-independent basis, Debye-Ang):
   XX=              0.8069   YY=              2.1970   ZZ=             -3.0039
   XY=             -0.0001   XZ=             -0.0000   YZ=             -0.0000
 Octapole moment (field-independent basis, Debye-Ang**2):
  XXX=             -0.0000  YYY=             -1.7854  ZZZ=             -0.0001  XYY=              0.0001
  XXY=              0.2246  XXZ=              0.0000  XZZ=             -0.0001  YZZ=              2.3386
  YYZ=             -0.0001  XYZ=             -0.0001
 Hexadecapole moment (field-independent basis, Debye-Ang**3):
 XXXX=           -192.1920 YYYY=           -195.3016 ZZZZ=            -39.8916 XXXY=              0.0000
 XXXZ=             -0.0001 YYYX=              0.0001 YYYZ=             -0.0000 ZZZX=             -0.0000
 ZZZY=             -0.0001 XXYY=            -64.3323 XXZZ=            -45.6209 YYZZ=            -40.0209
 XXYZ=              0.0000 YYXZ=              0.0000 ZZXY=             -0.0003
 N-N= 1.564314438497D+02 E-N=-7.619529652102D+02  KE= 1.921757971106D+02
  Exact polarizability:      53.694      -0.000      59.527      -0.000       0.000      24.449
 Approx polarizability:      79.644      -0.001      98.062      -0.000       0.000      35.904
 No NMR shielding tensors so no spin-rotation constants.
 Leave Link  601 at Thu Dec  7 02:05:01 2023, MaxMem= 13421772800 cpu:               1.8 elap:               0.1
 (Enter /public/software/apps/Gaussian/g16/l701.exe)
 ... and contract with generalized density number  0.
 Compute integral second derivatives.
 R6Disp: Adding Grimme-D3(BJ) dispersion energy 2nd derivatives to the Hessian.
 Leave Link  701 at Thu Dec  7 02:05:01 2023, MaxMem= 13421772800 cpu:               6.0 elap:               0.2
 (Enter /public/software/apps/Gaussian/g16/l702.exe)
 L702 exits ... SP integral derivatives will be done elsewhere.
 Leave Link  702 at Thu Dec  7 02:05:01 2023, MaxMem= 13421772800 cpu:               0.2 elap:               0.0
 (Enter /public/software/apps/Gaussian/g16/l703.exe)
 Integral derivatives from FoFJK, PRISM(SPDF).
 Compute integral second derivatives, UseDBF=F ICtDFT=           0.
 Calling FoFJK, ICntrl=    100127 FMM=F ISym2X=0 I1Cent= 0 IOpClX= 0 NMat=1 NMatS=1 NMatT=0.
 FoFJK:  IHMeth= 1 ICntrl=  100127 DoSepK=F KAlg= 0 I1Cent=           0 FoldK=F
 IRaf=         0 NMat=       1 IRICut=       1 DoRegI=T DoRafI=F ISym2E= 0 IDoP0=0 IntGTp=1.
 FoFCou: FMM=F IPFlag=           0 FMFlag=      100000 FMFlg1=         800
         NFxFlg=           0 DoJE=F BraDBF=F KetDBF=F FulRan=T
         wScrn=  0.000000 ICntrl=    100127 IOpCl=  0 I1Cent=           0 NGrid=           0
         NMat0=    1 NMatS0=      1 NMatT0=    0 NMatD0=    1 NMtDS0=    0 NMtDT0=    0
 Symmetry not used in FoFCou.
 Leave Link  703 at Thu Dec  7 02:05:03 2023, MaxMem= 13421772800 cpu:              61.3 elap:               1.9
 (Enter /public/software/apps/Gaussian/g16/l716.exe)
 Dipole        =-9.53899632D-06 1.72082073D-01-4.93683510D-06
 Polarizability= 5.36940230D+01-3.26779550D-04 5.95269745D+01
                -5.89912434D-05 9.53845083D-05 2.44492148D+01
 Full mass-weighted force constant matrix:
 Low frequencies ---  -14.5982  -10.0219   -6.5668   -0.0011   -0.0008   -0.0003
 Low frequencies ---  348.1313  520.8291  686.4918
 Diagonal vibrational polarizability:
        0.7127352       0.6143899       5.9437793
 Harmonic frequencies (cm**-1), IR intensities (KM/Mole), Raman scattering
 activities (A**4/AMU), depolarization ratios for plane and unpolarized
 incident light, reduced masses (AMU), force constants (mDyne/A),
 and normal coordinates:
                      1                      2                      3
                      A                      A                      A
 Frequencies --    348.1313               520.8290               686.4918
 Red. masses --      1.5498                 2.3668                 1.1688
 Frc consts  --      0.1107                 0.3783                 0.3245
 IR Inten    --      9.7231                 0.0000                55.8960
  Atom  AN      X      Y      Z        X      Y      Z        X      Y      Z
     1   6    -0.00   0.00   0.07     0.00  -0.00  -0.19    -0.00   0.00  -0.05
     2   6    -0.00  -0.00  -0.13    -0.00   0.00   0.16     0.00   0.00   0.02
     3   6     0.00   0.00   0.06     0.00   0.00   0.00     0.00   0.00  -0.09
     4   6    -0.00   0.00  -0.13    -0.00   0.00  -0.16     0.00  -0.00   0.02
     5   6     0.00  -0.00   0.07    -0.00  -0.00   0.19    -0.00  -0.00  -0.05
     6   1     0.00   0.00   0.18     0.00   0.00  -0.59    -0.00   0.00   0.37
     7   1    -0.00   0.00  -0.18     0.00  -0.00  -0.04     0.00   0.00   0.55
     8   1     0.00  -0.47   0.43    -0.30  -0.00  -0.00     0.00  -0.21   0.08
     9   1    -0.00   0.47   0.43     0.30   0.00  -0.00    -0.00   0.21   0.08
    10   1    -0.00   0.00  -0.18     0.00   0.00   0.04     0.00  -0.00   0.55
    11   1     0.00  -0.00   0.18    -0.00  -0.00   0.59    -0.00  -0.00   0.37
                      4                      5                      6
                      A                      A                      A
 Frequencies --    709.0542               815.6505               817.8130
 Red. masses --      1.2890                 5.0315                 5.6086
 Frc consts  --      0.3818                 1.9722                 2.2101
 IR Inten    --      0.0000                 0.0388                 6.1239
  Atom  AN      X      Y      Z        X      Y      Z        X      Y      Z
     1   6    -0.00   0.00   0.10    -0.04  -0.16   0.00     0.24  -0.29   0.00
     2   6    -0.00   0.00   0.05    -0.30  -0.03  -0.00    -0.14  -0.17   0.00
     3   6     0.00   0.00  -0.00    -0.00   0.36  -0.00    -0.20   0.00  -0.00
     4   6     0.00  -0.00  -0.05     0.30  -0.03   0.00    -0.14   0.17  -0.00
     5   6    -0.00  -0.00  -0.10     0.04  -0.16   0.00     0.24   0.29  -0.00
     6   1     0.00   0.00  -0.13     0.30   0.08  -0.00     0.11  -0.37  -0.00
     7   1     0.00  -0.00  -0.67    -0.23  -0.26   0.00    -0.26   0.23   0.00
     8   1    -0.14  -0.00   0.00    -0.00   0.32   0.03     0.12   0.00   0.00
     9   1     0.14   0.00   0.00    -0.00   0.32  -0.03     0.12   0.00   0.00
    10   1     0.00  -0.00   0.67     0.23  -0.26  -0.00    -0.26  -0.23   0.00
    11   1    -0.00  -0.00   0.13    -0.30   0.08  -0.00     0.11   0.37   0.00
                      7                      8                      9
                      A                      A                      A
 Frequencies --    930.4157               933.1763               948.7206
 Red. masses --      2.0181                 2.1397                 1.2349
 Frc consts  --      1.0293                 1.0978                 0.6549
 IR Inten    --     17.4996                 9.0409                 0.4381
  Atom  AN      X      Y      Z        X      Y      Z        X      Y      Z
     1   6     0.00  -0.00  -0.00    -0.06   0.00  -0.00     0.00  -0.00  -0.08
     2   6    -0.00   0.00  -0.14     0.15  -0.07  -0.00     0.00   0.00   0.06
     3   6    -0.00  -0.00   0.22    -0.00   0.21   0.00    -0.00  -0.00   0.03
     4   6     0.00   0.00  -0.14    -0.15  -0.07  -0.00     0.00   0.00   0.06
     5   6    -0.00   0.00  -0.00     0.06   0.00   0.00     0.00   0.00  -0.08
     6   1     0.00   0.00   0.30    -0.27  -0.15   0.00    -0.00  -0.00   0.55
     7   1    -0.00   0.00   0.29     0.29  -0.48  -0.00     0.00   0.00  -0.44
     8   1    -0.00   0.50  -0.18    -0.00   0.20   0.00    -0.00   0.05  -0.01
     9   1     0.00  -0.50  -0.18    -0.00   0.20  -0.00    -0.00  -0.05  -0.01
    10   1     0.00   0.00   0.29    -0.29  -0.48   0.00     0.00   0.00  -0.44
    11   1    -0.00   0.00   0.30     0.27  -0.15   0.00    -0.00   0.00   0.55
                     10                     11                     12
                      A                      A                      A
 Frequencies --    955.4521               980.2417              1025.6563
 Red. masses --      1.3378                 1.6172                 2.6283
 Frc consts  --      0.7196                 0.9155                 1.6290
 IR Inten    --      0.0000                10.7721                 0.0068
  Atom  AN      X      Y      Z        X      Y      Z        X      Y      Z
     1   6    -0.00   0.00   0.11     0.00   0.03  -0.00     0.23  -0.07   0.00
     2   6     0.00  -0.00  -0.05    -0.13   0.03  -0.00     0.12  -0.00   0.00
     3   6     0.00   0.00   0.00     0.14   0.00   0.00    -0.00   0.09  -0.00
     4   6    -0.00  -0.00   0.05    -0.13  -0.03   0.00    -0.12  -0.00   0.00
     5   6     0.00   0.00  -0.11     0.00  -0.03  -0.00    -0.23  -0.07  -0.00
     6   1     0.00   0.00  -0.64     0.18   0.16   0.00     0.61   0.17   0.00
     7   1     0.00  -0.00   0.28    -0.17   0.16  -0.00     0.11   0.06  -0.00
     8   1     0.04   0.00  -0.00     0.60   0.00  -0.00    -0.00   0.11  -0.01
     9   1    -0.04  -0.00  -0.00     0.60   0.00  -0.00    -0.00   0.11   0.01
    10   1    -0.00  -0.00  -0.28    -0.17  -0.16  -0.00    -0.11   0.06  -0.00
    11   1     0.00  -0.00   0.64     0.18  -0.16   0.00    -0.61   0.17  -0.00
                     13                     14                     15
                      A                      A                      A
 Frequencies --   1124.9123              1132.7918              1141.4946
 Red. masses --      1.1237                 1.1219                 1.2428
 Frc consts  --      0.8378                 0.8482                 0.9541
 IR Inten    --      1.9091                 0.0000                 0.1356
  Atom  AN      X      Y      Z        X      Y      Z        X      Y      Z
     1   6    -0.02  -0.01   0.00    -0.00   0.00  -0.01     0.04  -0.07   0.00
     2   6     0.05   0.04  -0.00    -0.00   0.00   0.07     0.03   0.01   0.00
     3   6     0.00   0.00  -0.00     0.00  -0.00   0.00    -0.00   0.08   0.00
     4   6     0.05  -0.04   0.00     0.00  -0.00  -0.07    -0.03   0.01  -0.00
     5   6    -0.02   0.01   0.00     0.00   0.00   0.01    -0.04  -0.07  -0.00
     6   1    -0.37  -0.25  -0.00     0.00   0.00  -0.08    -0.34  -0.34  -0.00
     7   1    -0.10   0.53   0.00     0.00  -0.00  -0.09    -0.12   0.48  -0.00
     8   1     0.12   0.00  -0.00     0.69   0.00  -0.00     0.00   0.09  -0.00
     9   1     0.12   0.00  -0.00    -0.69  -0.00   0.00    -0.00   0.09   0.00
    10   1    -0.10  -0.53  -0.00    -0.00  -0.00   0.09     0.12   0.48   0.00
    11   1    -0.37   0.25  -0.00    -0.00   0.00   0.08     0.34  -0.34   0.00
                     16                     17                     18
                      A                      A                      A
 Frequencies --   1282.6317              1331.7854              1419.4375
 Red. masses --      1.6530                 1.6848                 1.8350
 Frc consts  --      1.6022                 1.7606                 2.1783
 IR Inten    --      1.5473                 0.7820                 9.6305
  Atom  AN      X      Y      Z        X      Y      Z        X      Y      Z
     1   6    -0.01  -0.05  -0.00    -0.08  -0.00  -0.00    -0.16  -0.03  -0.00
     2   6    -0.05  -0.01  -0.00     0.09  -0.10   0.00     0.08  -0.06   0.00
     3   6     0.22   0.00  -0.00    -0.10  -0.00   0.00    -0.00   0.02  -0.00
     4   6    -0.05   0.01   0.00     0.09   0.10  -0.00    -0.08  -0.06   0.00
     5   6    -0.01   0.05   0.00    -0.08   0.00  -0.00     0.16  -0.03   0.00
     6   1     0.16   0.07   0.00     0.44   0.35   0.00     0.32   0.32   0.00
     7   1    -0.15   0.29  -0.00    -0.06   0.38  -0.00    -0.08   0.43  -0.00
     8   1    -0.58  -0.00   0.00     0.10   0.00   0.00    -0.00   0.22  -0.13
     9   1    -0.58  -0.00   0.00     0.10   0.00  -0.00    -0.00   0.22   0.13
    10   1    -0.15  -0.29   0.00    -0.06  -0.38  -0.00     0.08   0.43   0.00
    11   1     0.16  -0.07  -0.00     0.44  -0.35  -0.00    -0.32   0.32   0.00
                     19                     20                     21
                      A                      A                      A
 Frequencies --   1447.3959              1576.6565              1663.5372
 Red. masses --      1.1503                 5.8081                 5.1889
 Frc consts  --      1.4199                 8.5067                 8.4604
 IR Inten    --      7.6480                 1.7367                 0.3306
  Atom  AN      X      Y      Z        X      Y      Z        X      Y      Z
     1   6     0.02  -0.01   0.00    -0.14  -0.27  -0.00    -0.12  -0.30   0.00
     2   6    -0.02   0.03  -0.00     0.08   0.35  -0.00     0.06   0.29  -0.00
     3   6     0.00  -0.10   0.00     0.00  -0.06   0.00    -0.02   0.00  -0.00
     4   6     0.02   0.03   0.00    -0.08   0.35   0.00     0.06  -0.29  -0.00
     5   6    -0.02  -0.01  -0.00     0.14  -0.27  -0.00    -0.12   0.30   0.00
     6   1    -0.05  -0.06  -0.00     0.19  -0.09   0.00     0.44   0.03   0.00
     7   1     0.03  -0.12   0.00     0.32  -0.27   0.00     0.24  -0.14   0.00
     8   1    -0.00   0.52  -0.45     0.00  -0.22   0.13     0.18   0.00  -0.00
     9   1    -0.00   0.52   0.45     0.00  -0.22  -0.13     0.18   0.00   0.00
    10   1    -0.03  -0.12  -0.00    -0.32  -0.27   0.00     0.24   0.14   0.00
    11   1     0.05  -0.06  -0.00    -0.19  -0.09  -0.00     0.44  -0.03   0.00
                     22                     23                     24
                      A                      A                      A
 Frequencies --   3029.6088              3054.0032              3211.3803
 Red. masses --      1.0607                 1.0990                 1.0865
 Frc consts  --      5.7361                 6.0390                 6.6016
 IR Inten    --     11.6427                12.4158                 5.0138
  Atom  AN      X      Y      Z        X      Y      Z        X      Y      Z
     1   6    -0.00  -0.00   0.00     0.00  -0.00  -0.00    -0.03   0.05  -0.00
     2   6    -0.00  -0.00  -0.00     0.00   0.00  -0.00     0.02   0.01   0.00
     3   6    -0.00   0.07  -0.00    -0.00  -0.00  -0.09    -0.00  -0.00  -0.00
     4   6     0.00  -0.00  -0.00    -0.00  -0.00  -0.00     0.02  -0.01  -0.00
     5   6     0.00  -0.00   0.00    -0.00   0.00  -0.00    -0.03  -0.05  -0.00
     6   1     0.00  -0.01  -0.00    -0.00   0.00  -0.00     0.36  -0.53   0.00
     7   1     0.02   0.01   0.00    -0.00  -0.00   0.00    -0.27  -0.08  -0.00
     8   1     0.00  -0.41  -0.57    -0.00   0.44   0.55     0.00   0.00   0.00
     9   1     0.00  -0.41   0.57     0.00  -0.44   0.55     0.00   0.00  -0.00
    10   1    -0.02   0.01   0.00     0.00  -0.00   0.00    -0.27   0.08   0.00
    11   1    -0.00  -0.01  -0.00     0.00   0.00  -0.00     0.36   0.53   0.00
                     25                     26                     27
                      A                      A                      A
 Frequencies --   3221.9636              3240.9007              3246.8750
 Red. masses --      1.0886                 1.0993                 1.1056
 Frc consts  --      6.6585                 6.8032                 6.8671
 IR Inten    --     16.7176                27.5393                 2.8590
  Atom  AN      X      Y      Z        X      Y      Z        X      Y      Z
     1   6     0.03  -0.04   0.00    -0.01   0.03  -0.00    -0.02   0.03  -0.00
     2   6    -0.03  -0.01  -0.00    -0.05  -0.02   0.00    -0.05  -0.02   0.00
     3   6     0.00  -0.00  -0.00     0.00   0.00  -0.00     0.00  -0.00   0.00
     4   6     0.03  -0.01  -0.00    -0.05   0.02   0.00     0.05  -0.02  -0.00
     5   6    -0.03  -0.04  -0.00    -0.01  -0.03  -0.00     0.02   0.03   0.00
     6   1    -0.33   0.47  -0.00     0.15  -0.23   0.00     0.23  -0.34   0.00
     7   1     0.39   0.12  -0.00     0.62   0.20   0.00     0.54   0.18  -0.00
     8   1    -0.00   0.01   0.01    -0.00  -0.00  -0.00    -0.00   0.02   0.02
     9   1    -0.00   0.01  -0.01    -0.00  -0.00   0.00    -0.00   0.02  -0.02
    10   1    -0.39   0.12   0.00     0.62  -0.20  -0.00    -0.54   0.18   0.00
    11   1     0.33   0.47   0.00     0.15   0.23   0.00    -0.23  -0.34  -0.00

 -------------------
 - Thermochemistry -
 -------------------
 Temperature   298.150 Kelvin.  Pressure   1.00000 Atm.
 Atom     1 has atomic number  6 and mass  12.00000
 Atom     2 has atomic number  6 and mass  12.00000
 Atom     3 has atomic number  6 and mass  12.00000
 Atom     4 has atomic number  6 and mass  12.00000
 Atom     5 has atomic number  6 and mass  12.00000
 Atom     6 has atomic number  1 and mass   1.00783
 Atom     7 has atomic number  1 and mass   1.00783
 Atom     8 has atomic number  1 and mass   1.00783
 Atom     9 has atomic number  1 and mass   1.00783
 Atom    10 has atomic number  1 and mass   1.00783
 Atom    11 has atomic number  1 and mass   1.00783
 Molecular mass:    66.04695 amu.
 Principal axes and moments of inertia in atomic units:
                           1         2         3
     Eigenvalues --   213.63839 219.72485 422.25743
           X            1.00000  -0.00005  -0.00000
           Y            0.00005   1.00000  -0.00000
           Z            0.00000   0.00000   1.00000
 This molecule is an asymmetric top.
 Rotational symmetry number  1.
 Rotational temperatures (Kelvin)      0.40542     0.39419     0.20512
 Rotational constants (GHZ):           8.44764     8.21364     4.27403
 Zero-point vibrational energy     244020.3 (Joules/Mol)
                                   58.32225 (Kcal/Mol)
 Warning -- explicit consideration of   2 degrees of freedom as
           vibrations may cause significant error
 Vibrational temperatures:    500.88   749.36   987.71  1020.17  1173.54
          (Kelvin)           1176.65  1338.66  1342.63  1365.00  1374.68
                             1410.35  1475.69  1618.50  1629.83  1642.36
                             1845.42  1916.14  2042.25  2082.48  2268.46
                             2393.46  4358.93  4394.03  4620.46  4635.69
                             4662.93  4671.53
 
 Zero-point correction=                           0.092942 (Hartree/Particle)
 Thermal correction to Energy=                    0.097086
 Thermal correction to Enthalpy=                  0.098030
 Thermal correction to Gibbs Free Energy=         0.066344
 Sum of electronic and zero-point Energies=           -194.022978
 Sum of electronic and thermal Energies=              -194.018834
 Sum of electronic and thermal Enthalpies=            -194.017890
 Sum of electronic and thermal Free Energies=         -194.049576
 
                     E (Thermal)             CV                S
                      KCal/Mol        Cal/Mol-Kelvin    Cal/Mol-Kelvin
 Total                   60.922             15.527             66.689
 Electronic               0.000              0.000              0.000
 Translational            0.889              2.981             38.482
 Rotational               0.889              2.981             24.498
 Vibrational             59.145              9.566              3.710
 Vibration     1          0.726              1.579              1.175
 Vibration     2          0.876              1.204              0.608
                       Q            Log10(Q)             Ln(Q)
 Total Bot       0.304645D-30        -30.516205        -70.266160
 Total V=0       0.171515D+13         12.234303         28.170523
 Vib (Bot)       0.286516D-42        -42.542852        -97.958537
 Vib (Bot)    1  0.530612D+00         -0.275223         -0.633724
 Vib (Bot)    2  0.309681D+00         -0.509085         -1.172213
 Vib (V=0)       0.161308D+01          0.207656          0.478146
 Vib (V=0)    1  0.122907D+01          0.089578          0.206261
 Vib (V=0)    2  0.108813D+01          0.036683          0.084465
 Electronic      0.100000D+01          0.000000          0.000000
 Translational   0.210976D+08          7.324233         16.864670
 Rotational      0.503980D+05          4.702413         10.827707
 
                                                        $$$$Singlemol####0????
                                                             IR Spectrum
 
    3333     33                                                    1   1    11  1 1   111  1                                         
    2222     00                                                    6   5    44  3 2   111  099999   88   76     5      3             
    4421     53                                                    6   7    41  3 8   432  285433   11   08     2      4             
    7121     40                                                    4   7    79  2 3   135  605930   86   96     1      8             
 
    XXXX     XX                                                    X   X    XX  X X   X X   X XXX   X     X            X             
     XXX     XX                                                             XX              X  XX   X     X            X             
     XX      XX                                                             XX              X  XX         X            X             
     XX      XX                                                                             X   X         X                          
     XX                                                                                         X         X                          
     XX                                                                                         X         X                          
     X                                                                                                    X                          
     X                                                                                                    X                          
     X                                                                                                    X                          
     X                                                                                                    X                          
                                                                                                          X                          
                                                                                                          X                          
                                                                                                          X                          
                                                                                                          X                          
                                                                                                          X                          
                                                                                                          X                          
                                                                                                          X                          
                                                                                                          X                          
                                                                                                          X                          
                                                                                                          X                          
 
 ***** Axes restored to original set *****
 -------------------------------------------------------------------
 Center     Atomic                   Forces (Hartrees/Bohr)
 Number     Number              X              Y              Z
 -------------------------------------------------------------------
      1        6           0.000109217    0.000013862    0.000016297
      2        6          -0.000154874   -0.000023234   -0.000026153
      3        6          -0.000021792   -0.000006307   -0.000001376
      4        6          -0.000142377   -0.000067965   -0.000027703
      5        6           0.000099799    0.000049883    0.000019985
      6        1           0.000063721   -0.000014755    0.000010253
      7        1           0.000000303    0.000007352    0.000000314
      8        1          -0.000005445   -0.000000667    0.000021055
      9        1           0.000002489   -0.000000224   -0.000021494
     10        1           0.000004496   -0.000005827    0.000000327
     11        1           0.000044462    0.000047881    0.000008495
 -------------------------------------------------------------------
 Cartesian Forces:  Max     0.000154874 RMS     0.000051166
 Force constants in Cartesian coordinates: 
                1             2             3             4             5 
      1  0.790748D+00
      2  0.116698D+00  0.626565D+00
      3  0.111455D+00  0.290160D-01  0.145564D+00
      4 -0.478184D+00  0.222364D-02 -0.689583D-01  0.774880D+00
      5  0.124742D-01 -0.103880D+00  0.115620D-02 -0.134659D+00  0.625683D+00
      6 -0.687569D-01 -0.528697D-03 -0.697262D-01  0.103008D+00 -0.124274D-01
      7 -0.404809D-01 -0.192119D-01 -0.762727D-02 -0.861707D-01 -0.260189D-01
      8 -0.257529D-01 -0.381874D-02 -0.437965D-02 -0.419875D-01 -0.187520D+00
      9 -0.775627D-02 -0.330423D-02  0.228069D-02 -0.318435D-02 -0.655266D-02
     10  0.203200D-01 -0.316791D-01  0.964896D-03 -0.135755D-01  0.121922D-01
     11 -0.656042D-02 -0.592888D-01 -0.245354D-02  0.134197D-01 -0.528478D-01
     12  0.145869D-02 -0.658331D-02  0.107711D-01 -0.343718D-02  0.788870D-03
     13 -0.112954D+00  0.453393D-01 -0.814077D-02 -0.211622D-01  0.313149D-01
     14  0.243119D-01 -0.219648D+00  0.815503D-03  0.564337D-01 -0.171095D-01
     15 -0.855412D-02  0.427228D-02 -0.593242D-01 -0.412117D-02  0.460148D-02
     16 -0.167057D+00 -0.135723D+00 -0.241334D-01 -0.903259D-02 -0.265096D-01
     17 -0.137076D+00 -0.233973D+00 -0.264171D-01  0.418915D-02  0.702710D-02
     18 -0.241597D-01 -0.261945D-01 -0.409670D-01 -0.196257D-02 -0.428649D-02
     19 -0.695895D-02  0.267557D-01 -0.127109D-02 -0.148238D+00  0.133195D+00
     20 -0.353686D-02  0.460110D-02 -0.569061D-03  0.135792D+00 -0.257608D+00
     21 -0.186679D-02  0.441030D-02  0.375556D-02 -0.171550D-01  0.173712D-01
     22 -0.681589D-03  0.188294D-03  0.117233D-02 -0.711367D-02 -0.199725D-02
     23 -0.128940D-02 -0.512480D-02 -0.179350D-02 -0.232026D-01 -0.413516D-02
     24 -0.961732D-03  0.191216D-04  0.138088D-03 -0.300109D-02 -0.355620D-03
     25 -0.523898D-03  0.267152D-03 -0.139813D-02 -0.544438D-02 -0.172764D-02
     26 -0.179340D-02 -0.517795D-02  0.107969D-02 -0.153316D-01 -0.318505D-02
     27  0.666313D-03 -0.151219D-03  0.334597D-04 -0.140688D-03 -0.438865D-03
     28 -0.407386D-02 -0.215494D-02 -0.194008D-02 -0.548363D-02  0.209930D-02
     29 -0.267713D-02 -0.127467D-02 -0.611971D-03  0.146393D-02 -0.234574D-03
     30 -0.195025D-02 -0.526234D-03  0.714083D-02 -0.749509D-03  0.355049D-03
     31 -0.153151D-03 -0.270235D-02 -0.123181D-03 -0.474482D-03 -0.363335D-03
     32  0.252027D-01  0.101999D-02  0.415748D-02  0.165868D-02 -0.619075D-02
     33  0.425846D-03 -0.429508D-03  0.333955D-03 -0.297976D-03 -0.211745D-03
                6             7             8             9            10 
      6  0.148813D+00
      7 -0.287026D-02  0.563318D+00
      8 -0.917765D-02  0.442618D-01  0.429552D+00
      9 -0.724754D-01  0.737326D-02  0.542320D-02  0.525077D+00
     10 -0.346148D-02 -0.147678D+00  0.673845D-01 -0.111448D-01  0.603654D+00
     11  0.990908D-03  0.514160D-01 -0.124979D+00  0.740661D-02  0.125372D+00
     12  0.839168D-02 -0.114582D-01  0.100317D-01 -0.735095D-01  0.799707D-01
     13 -0.461488D-02 -0.497740D-01 -0.509997D-02 -0.887647D-02 -0.356704D+00
     14  0.873015D-02 -0.116411D-01  0.563032D-02 -0.187414D-02 -0.172013D+00
     15  0.100739D-01 -0.900621D-02 -0.798786D-03  0.212470D-02 -0.524107D-01
     16 -0.256621D-02 -0.432088D-02  0.933756D-03 -0.273256D-02 -0.159260D-02
     17  0.759824D-03  0.152504D-02 -0.487416D-03 -0.313394D-05  0.133463D-02
     18  0.300023D-02 -0.272092D-02 -0.100290D-03  0.119652D-01 -0.488203D-03
     19 -0.172060D-01  0.109207D-01 -0.104064D-01  0.194711D-02 -0.225160D-02
     20  0.177980D-01  0.165964D-01 -0.105826D-01  0.256268D-02 -0.280879D-02
     21 -0.301083D-01  0.247832D-02 -0.187621D-02 -0.179883D-02 -0.302431D-03
     22  0.506376D-02 -0.164206D+00 -0.328698D-01  0.129349D+00 -0.179840D-01
     23  0.208271D-01 -0.330245D-01 -0.504550D-01  0.351608D-01  0.142912D-01
     24  0.201589D-02  0.124112D+00  0.335934D-01 -0.161824D+00 -0.380750D-02
     25 -0.752099D-02 -0.868621D-01 -0.166299D-01 -0.104552D+00 -0.122371D-01
     26 -0.273436D-01 -0.164753D-01 -0.476388D-01 -0.372059D-01  0.880653D-02
     27 -0.603476D-03 -0.993144D-01 -0.356386D-01 -0.241983D+00 -0.102555D-02
     28 -0.737041D-03  0.721210D-02  0.222283D-01  0.197926D-02 -0.576137D-01
     29  0.250752D-03 -0.477452D-02 -0.681172D-02 -0.876207D-03 -0.442622D-02
     30 -0.865212D-03  0.144827D-02  0.356273D-02 -0.186116D-02 -0.501563D-02
     31 -0.337757D-03 -0.195893D-02 -0.206186D-02 -0.240297D-02 -0.143373D-01
     32  0.120622D-03 -0.265311D-02 -0.288910D-02 -0.737006D-03 -0.184542D-01
     33  0.148374D-02 -0.241486D-02 -0.639784D-03  0.120050D-01 -0.327934D-02
               11            12            13            14            15 
     11  0.799793D+00
     12  0.337340D-01  0.145933D+00
     13 -0.182263D+00 -0.526128D-01  0.844645D+00
     14 -0.227408D+00 -0.315953D-01  0.348584D-01  0.571766D+00
     15 -0.332805D-01 -0.676822D-01  0.118698D+00  0.144822D-01  0.146467D+00
     16  0.335665D-02 -0.448401D-03  0.104849D-01  0.904810D-02  0.185666D-02
     17 -0.505383D-02  0.897302D-04 -0.188570D-01 -0.979671D-02 -0.329762D-02
     18  0.422041D-03  0.146493D-02  0.130765D-02  0.128925D-02  0.512690D-03
     19 -0.344416D-02 -0.314741D-03 -0.538130D-02 -0.691582D-03 -0.212641D-02
     20 -0.352092D-02 -0.516256D-03 -0.169401D-03  0.547909D-04 -0.173730D-03
     21 -0.620629D-03 -0.810893D-03 -0.211607D-02 -0.259466D-03  0.711878D-02
     22 -0.609992D-02  0.156954D-01 -0.251245D-02  0.152246D-02 -0.130342D-03
     23  0.565985D-02 -0.145822D-01  0.291169D-02 -0.318010D-02  0.237017D-02
     24 -0.164949D-02  0.309114D-02 -0.995502D-03 -0.340026D-03  0.240446D-04
     25 -0.561171D-02 -0.212130D-01 -0.262427D-02  0.136467D-02 -0.693853D-03
     26  0.497981D-02  0.185499D-01  0.351367D-02 -0.312533D-02 -0.144237D-02
     27 -0.104649D-03 -0.197558D-02  0.240891D-03  0.686151D-03  0.814135D-04
     28 -0.182946D-02 -0.496450D-02  0.718646D-02 -0.250178D-01  0.356669D-04
     29 -0.349756D+00 -0.706090D-02  0.527488D-02 -0.978201D-02  0.596416D-03
     30 -0.663462D-02 -0.285850D-01  0.631360D-03 -0.438250D-02  0.399324D-02
     31  0.122446D-01 -0.267611D-02 -0.311205D+00  0.818237D-01 -0.435475D-01
     32  0.124208D-01 -0.285627D-02  0.831765D-01 -0.874018D-01  0.126704D-01
     33  0.218979D-02  0.291115D-02 -0.435214D-01  0.124481D-01 -0.433897D-01
               16            17            18            19            20 
     16  0.170794D+00
     17  0.150600D+00  0.241523D+00
     18  0.269816D-01  0.290208D-01  0.296764D-01
     19  0.785270D-03 -0.725639D-03  0.956268D-03  0.149657D+00
     20  0.711603D-03  0.336491D-03  0.224284D-03 -0.147350D+00  0.266371D+00
     21  0.984496D-03 -0.119523D-04 -0.495731D-02  0.183070D-01 -0.193885D-01
     22 -0.297543D-03 -0.183395D-03 -0.935081D-03  0.146438D-03 -0.359700D-03
     23 -0.482049D-03  0.284696D-03 -0.259053D-02  0.867487D-03  0.178722D-03
     24 -0.112038D-03 -0.595292D-04 -0.628352D-03  0.359424D-03  0.528306D-03
     25 -0.639519D-03 -0.233467D-03  0.905381D-03  0.138616D-03 -0.185972D-03
     26 -0.129455D-02  0.186369D-03  0.232364D-02  0.530479D-03  0.159263D-03
     27  0.556008D-04  0.161372D-04 -0.188052D-03 -0.366524D-03 -0.621094D-03
     28  0.913587D-03 -0.124922D-02  0.000000D+00  0.110421D-02  0.129080D-02
     29  0.351119D-03 -0.497550D-03  0.329367D-04 -0.351414D-03 -0.342510D-03
     30  0.315910D-04 -0.230115D-03  0.763918D-03 -0.204228D-03  0.160129D-03
     31 -0.375776D-04  0.676374D-03  0.115436D-03  0.777101D-04  0.201102D-04
     32 -0.991319D-03  0.451132D-03 -0.141114D-03  0.162045D-02  0.352363D-03
     33  0.826328D-04  0.133016D-03 -0.642700D-03 -0.808052D-04 -0.477708D-05
               21            22            23            24            25 
     21  0.232845D-01
     22 -0.407161D-03  0.182490D+00
     23 -0.954809D-03  0.372366D-01  0.545968D-01
     24  0.232642D-03 -0.137021D+00 -0.370034D-01  0.180105D+00
     25  0.361829D-03  0.101545D-01  0.341581D-02  0.209167D-01  0.988655D-01
     26  0.118152D-02  0.251113D-02  0.172061D-02  0.556821D-02  0.195109D-01
     27  0.259861D-03 -0.971815D-02 -0.359988D-02 -0.226130D-01  0.110211D+00
     28 -0.171934D-03  0.393575D-03 -0.705283D-03  0.632188D-03  0.297986D-03
     29 -0.109784D-03  0.454387D-03 -0.454846D-04 -0.221316D-03  0.326280D-03
     30  0.227414D-02 -0.887805D-03  0.577514D-03  0.209722D-03  0.935361D-03
     31 -0.112271D-03 -0.389752D-03 -0.190183D-04 -0.121624D-03 -0.112530D-02
     32  0.258291D-03 -0.402823D-03  0.499869D-03 -0.795921D-04 -0.496042D-03
     33  0.749874D-03 -0.218123D-02  0.158874D-02 -0.751348D-03  0.204706D-02
               26            27            28            29            30 
     26  0.515521D-01
     27  0.395451D-01  0.266774D+00
     28 -0.457695D-03 -0.622822D-03  0.494493D-01
     29 -0.298567D-04  0.338412D-03  0.482414D-02  0.368263D+00
     30 -0.779896D-03  0.289614D-03  0.482769D-02  0.762749D-02  0.216001D-01
     31  0.479882D-03  0.141602D-04  0.613953D-03 -0.465444D-03  0.933152D-03
     32  0.558901D-03 -0.314780D-04  0.971789D-03  0.510707D-03  0.270453D-03
     33 -0.147627D-02 -0.747724D-04  0.961445D-03  0.341650D-04 -0.496022D-02
               31            32            33 
     31  0.328990D+00
     32 -0.896327D-01  0.806679D-01
     33  0.482586D-01 -0.136318D-01  0.323350D-01
 FormGI is forming the generalized inverse of G from B-inverse, IUseBI=4.
 Leave Link  716 at Thu Dec  7 02:05:03 2023, MaxMem= 13421772800 cpu:               0.5 elap:               0.0
 (Enter /public/software/apps/Gaussian/g16/l103.exe)

 GradGradGradGradGradGradGradGradGradGradGradGradGradGradGradGradGradGrad
 Berny optimization.
 Red2BG is reusing G-inverse.
 Internal  Forces:  Max     0.000165644 RMS     0.000037406
 Search for a local minimum.
 Step number   1 out of a maximum of    2
 All quantities printed in internal units (Hartrees-Bohrs-Radians)
 Second derivative matrix not updated -- analytic derivatives used.
 ITU=  0
     Eigenvalues ---    0.00697   0.00864   0.01405   0.01469   0.02274
     Eigenvalues ---    0.04057   0.05066   0.05867   0.06597   0.08048
     Eigenvalues ---    0.09744   0.10009   0.11092   0.11241   0.19862
     Eigenvalues ---    0.21579   0.25532   0.29253   0.32516   0.33497
     Eigenvalues ---    0.34621   0.36642   0.36758   0.37049   0.37307
     Eigenvalues ---    0.50856   0.57273
 Angle between quadratic step and forces=  43.14 degrees.
 Linear search not attempted -- first point.
 Iteration  1 RMS(Cart)=  0.00023788 RMS(Int)=  0.00000006
 Iteration  2 RMS(Cart)=  0.00000006 RMS(Int)=  0.00000000
 ITry= 1 IFail=0 DXMaxC= 1.07D-03 DCOld= 1.00D+10 DXMaxT= 3.00D-01 DXLimC= 3.00D+00 Rises=F
 Variable       Old X    -DE/DX   Delta X   Delta X   Delta X     New X
                                 (Linear)    (Quad)   (Total)
    R1        2.54845   0.00016   0.00000   0.00028   0.00028   2.54873
    R2        2.77757  -0.00003   0.00000  -0.00008  -0.00008   2.77748
    R3        2.05027   0.00003   0.00000   0.00008   0.00008   2.05034
    R4        2.84675   0.00002   0.00000   0.00002   0.00002   2.84677
    R5        2.04779   0.00001   0.00000   0.00001   0.00001   2.04780
    R6        2.84675   0.00002   0.00000   0.00002   0.00002   2.84677
    R7        2.08006   0.00002   0.00000   0.00005   0.00005   2.08011
    R8        2.08006   0.00002   0.00000   0.00005   0.00005   2.08011
    R9        2.54845   0.00017   0.00000   0.00028   0.00028   2.54873
   R10        2.04779   0.00001   0.00000   0.00001   0.00001   2.04780
   R11        2.05027   0.00003   0.00000   0.00007   0.00007   2.05034
    A1        1.90798  -0.00001   0.00000   0.00000   0.00000   1.90798
    A2        2.20465   0.00007   0.00000   0.00054   0.00054   2.20518
    A3        2.17056  -0.00006   0.00000  -0.00054  -0.00054   2.17002
    A4        1.90330   0.00001   0.00000  -0.00003  -0.00003   1.90328
    A5        2.21692  -0.00001   0.00000  -0.00002  -0.00002   2.21690
    A6        2.16297  -0.00000   0.00000   0.00005   0.00005   2.16301
    A7        1.80221   0.00000   0.00000   0.00004   0.00004   1.80226
    A8        1.95426  -0.00000   0.00000  -0.00005  -0.00005   1.95421
    A9        1.95426  -0.00000   0.00000  -0.00006  -0.00006   1.95421
   A10        1.95425  -0.00000   0.00000  -0.00005  -0.00005   1.95421
   A11        1.95426  -0.00000   0.00000  -0.00006  -0.00006   1.95421
   A12        1.84778   0.00001   0.00000   0.00016   0.00016   1.84794
   A13        1.90330   0.00001   0.00000  -0.00003  -0.00003   1.90328
   A14        2.16296   0.00000   0.00000   0.00005   0.00005   2.16301
   A15        2.21692  -0.00001   0.00000  -0.00002  -0.00002   2.21690
   A16        1.90798  -0.00001   0.00000   0.00000   0.00000   1.90798
   A17        2.17056  -0.00006   0.00000  -0.00054  -0.00054   2.17002
   A18        2.20465   0.00007   0.00000   0.00054   0.00054   2.20518
    D1        0.00001  -0.00000   0.00000  -0.00001  -0.00001   0.00000
    D2       -3.14158  -0.00000   0.00000  -0.00001  -0.00001  -3.14159
    D3        3.14159   0.00000   0.00000   0.00000   0.00000   3.14159
    D4       -0.00000   0.00000   0.00000   0.00000   0.00000  -0.00000
    D5       -0.00002   0.00000   0.00000   0.00002   0.00002   0.00000
    D6        3.14159   0.00000   0.00000   0.00001   0.00001   3.14159
    D7        3.14158   0.00000   0.00000   0.00001   0.00001   3.14159
    D8        0.00000  -0.00000   0.00000  -0.00000  -0.00000   0.00000
    D9        0.00001  -0.00000   0.00000  -0.00001  -0.00001   0.00000
   D10        2.10546  -0.00000   0.00000  -0.00007  -0.00007   2.10539
   D11       -2.10545   0.00000   0.00000   0.00006   0.00006  -2.10539
   D12       -3.14158  -0.00000   0.00000  -0.00001  -0.00001   3.14159
   D13       -1.03614  -0.00000   0.00000  -0.00007  -0.00007  -1.03620
   D14        1.03614   0.00000   0.00000   0.00006   0.00006   1.03620
   D15       -0.00002   0.00000   0.00000   0.00002   0.00002   0.00000
   D16        3.14159   0.00000   0.00000   0.00001   0.00001   3.14159
   D17       -2.10548   0.00000   0.00000   0.00008   0.00008  -2.10539
   D18        1.03614   0.00000   0.00000   0.00007   0.00007   1.03620
   D19        2.10543  -0.00000   0.00000  -0.00004  -0.00004   2.10539
   D20       -1.03614  -0.00000   0.00000  -0.00006  -0.00006  -1.03620
   D21        0.00003  -0.00000   0.00000  -0.00003  -0.00003   0.00000
   D22       -3.14158  -0.00000   0.00000  -0.00001  -0.00001  -3.14159
   D23       -3.14158  -0.00000   0.00000  -0.00001  -0.00001   3.14159
   D24       -0.00001   0.00000   0.00000   0.00001   0.00001   0.00000
         Item               Value     Threshold  Converged?
 Maximum Force            0.000166     0.000450     YES
 RMS     Force            0.000037     0.000300     YES
 Maximum Displacement     0.001075     0.001800     YES
 RMS     Displacement     0.000238     0.001200     YES
 Predicted change in Energy=-1.186586D-07
 Optimization completed.
    -- Stationary point found.
                           ----------------------------
                           !   Optimized Parameters   !
                           ! (Angstroms and Degrees)  !
 --------------------------                            --------------------------
 ! Name  Definition              Value          Derivative Info.                !
 --------------------------------------------------------------------------------
 ! R1    R(1,2)                  1.3486         -DE/DX =    0.0002              !
 ! R2    R(1,5)                  1.4698         -DE/DX =    0.0                 !
 ! R3    R(1,6)                  1.085          -DE/DX =    0.0                 !
 ! R4    R(2,3)                  1.5064         -DE/DX =    0.0                 !
 ! R5    R(2,7)                  1.0836         -DE/DX =    0.0                 !
 ! R6    R(3,4)                  1.5064         -DE/DX =    0.0                 !
 ! R7    R(3,8)                  1.1007         -DE/DX =    0.0                 !
 ! R8    R(3,9)                  1.1007         -DE/DX =    0.0                 !
 ! R9    R(4,5)                  1.3486         -DE/DX =    0.0002              !
 ! R10   R(4,10)                 1.0836         -DE/DX =    0.0                 !
 ! R11   R(5,11)                 1.085          -DE/DX =    0.0                 !
 ! A1    A(2,1,5)              109.3192         -DE/DX =    0.0                 !
 ! A2    A(2,1,6)              126.3169         -DE/DX =    0.0001              !
 ! A3    A(5,1,6)              124.3639         -DE/DX =   -0.0001              !
 ! A4    A(1,2,3)              109.0511         -DE/DX =    0.0                 !
 ! A5    A(1,2,7)              127.0201         -DE/DX =    0.0                 !
 ! A6    A(3,2,7)              123.9288         -DE/DX =    0.0                 !
 ! A7    A(2,3,4)              103.2593         -DE/DX =    0.0                 !
 ! A8    A(2,3,8)              111.9707         -DE/DX =    0.0                 !
 ! A9    A(2,3,9)              111.9709         -DE/DX =    0.0                 !
 ! A10   A(4,3,8)              111.9705         -DE/DX =    0.0                 !
 ! A11   A(4,3,9)              111.971          -DE/DX =    0.0                 !
 ! A12   A(8,3,9)              105.8701         -DE/DX =    0.0                 !
 ! A13   A(3,4,5)              109.0511         -DE/DX =    0.0                 !
 ! A14   A(3,4,10)             123.9287         -DE/DX =    0.0                 !
 ! A15   A(5,4,10)             127.0202         -DE/DX =    0.0                 !
 ! A16   A(1,5,4)              109.3193         -DE/DX =    0.0                 !
 ! A17   A(1,5,11)             124.3638         -DE/DX =   -0.0001              !
 ! A18   A(4,5,11)             126.3169         -DE/DX =    0.0001              !
 ! D1    D(5,1,2,3)              0.0004         -DE/DX =    0.0                 !
 ! D2    D(5,1,2,7)           -179.9995         -DE/DX =    0.0                 !
 ! D3    D(6,1,2,3)            179.9998         -DE/DX =    0.0                 !
 ! D4    D(6,1,2,7)             -0.0001         -DE/DX =    0.0                 !
 ! D5    D(2,1,5,4)             -0.0014         -DE/DX =    0.0                 !
 ! D6    D(2,1,5,11)           179.9996         -DE/DX =    0.0                 !
 ! D7    D(6,1,5,4)            179.9993         -DE/DX =    0.0                 !
 ! D8    D(6,1,5,11)             0.0002         -DE/DX =    0.0                 !
 ! D9    D(1,2,3,4)              0.0006         -DE/DX =    0.0                 !
 ! D10   D(1,2,3,8)            120.6339         -DE/DX =    0.0                 !
 ! D11   D(1,2,3,9)           -120.6335         -DE/DX =    0.0                 !
 ! D12   D(7,2,3,4)            180.0005         -DE/DX =    0.0                 !
 ! D13   D(7,2,3,8)            -59.3662         -DE/DX =    0.0                 !
 ! D14   D(7,2,3,9)             59.3664         -DE/DX =    0.0                 !
 ! D15   D(2,3,4,5)             -0.0014         -DE/DX =    0.0                 !
 ! D16   D(2,3,4,10)           179.9996         -DE/DX =    0.0                 !
 ! D17   D(8,3,4,5)           -120.6348         -DE/DX =    0.0                 !
 ! D18   D(8,3,4,10)            59.3662         -DE/DX =    0.0                 !
 ! D19   D(9,3,4,5)            120.6325         -DE/DX =    0.0                 !
 ! D20   D(9,3,4,10)           -59.3664         -DE/DX =    0.0                 !
 ! D21   D(3,4,5,1)              0.0017         -DE/DX =    0.0                 !
 ! D22   D(3,4,5,11)          -179.9993         -DE/DX =    0.0                 !
 ! D23   D(10,4,5,1)           180.0006         -DE/DX =    0.0                 !
 ! D24   D(10,4,5,11)           -0.0004         -DE/DX =    0.0                 !
 --------------------------------------------------------------------------------
 GradGradGradGradGradGradGradGradGradGradGradGradGradGradGradGradGradGrad

 Leave Link  103 at Thu Dec  7 02:05:03 2023, MaxMem= 13421772800 cpu:               1.9 elap:               0.1
 (Enter /public/software/apps/Gaussian/g16/l9999.exe)

 ----------------------------------------------------------------------

 Electric dipole moment (input orientation):
 (Debye = 10**-18 statcoulomb cm , SI units = C m)
                  (au)            (Debye)         (10**-30 SI)
   Tot        0.172082D+00      0.437389D+00      0.145897D+01
   x         -0.162484D+00     -0.412993D+00     -0.137760D+01
   y         -0.494439D-01     -0.125674D+00     -0.419203D+00
   z         -0.276862D-01     -0.703712D-01     -0.234733D+00

 Dipole polarizability, Alpha (input orientation).
 (esu units = cm**3 , SI units = C**2 m**2 J**-1)
 Alpha(0;0):
               (au)            (10**-24 esu)      (10**-40 SI)
   iso        0.458901D+02      0.680021D+01      0.756625D+01
   aniso      0.325556D+02      0.482424D+01      0.536769D+01
   xx         0.581254D+02      0.861329D+01      0.958358D+01
   yx         0.149049D+01      0.220868D+00      0.245749D+00
   yy         0.541646D+02      0.802636D+01      0.893053D+01
   zx         0.556486D+01      0.824627D+00      0.917521D+00
   zy         0.829337D+00      0.122895D+00      0.136739D+00
   zz         0.253803D+02      0.376097D+01      0.418464D+01

 ----------------------------------------------------------------------

 Dipole orientation:
     6         -0.36604837         -1.33969441         -2.04579543
     6         -0.58834441         -2.15296535          0.35915212
     6         -0.00006985          0.00000570          2.12624477
     6          0.58826168          2.15295513          0.35914592
     6          0.36612383          1.33963553         -2.04579723
     1         -0.67105245         -2.45604761         -3.73822740
     1         -1.10258932         -4.03480871          0.98178062
     1         -1.60118512          0.43752047          3.37989840
     1          1.60099117         -0.43749049          3.37997525
     1          1.10246197          4.03481177          0.98177225
     1          0.67122828          2.45595673         -3.73823398

 Electric dipole moment (dipole orientation):
 (Debye = 10**-18 statcoulomb cm , SI units = C m)
                  (au)            (Debye)         (10**-30 SI)
   Tot        0.172082D+00      0.437389D+00      0.145897D+01
   x          0.000000D+00      0.000000D+00      0.000000D+00
   y          0.000000D+00      0.000000D+00      0.000000D+00
   z          0.172082D+00      0.437389D+00      0.145897D+01

 Dipole polarizability, Alpha (dipole orientation).
 (esu units = cm**3 , SI units = C**2 m**2 J**-1)
 Alpha(0;0):
               (au)            (10**-24 esu)      (10**-40 SI)
   iso        0.458901D+02      0.680021D+01      0.756625D+01
   aniso      0.325556D+02      0.482424D+01      0.536769D+01
   xx         0.264811D+02      0.392410D+01      0.436615D+01
   yx         0.743605D+01      0.110191D+01      0.122604D+01
   yy         0.516621D+02      0.765553D+01      0.851793D+01
   zx        -0.106186D-02     -0.157351D-03     -0.175077D-03
   zy         0.293727D-03      0.435258D-04      0.484290D-04
   zz         0.595270D+02      0.882099D+01      0.981467D+01

 ----------------------------------------------------------------------
 Unable to Open any file for archive entry.
 1\1\GINC-NODE16\Freq\RB3LYP\6-31G(d)\C5H6\LJQ_HG\07-Dec-2023\0\\#P Geo
 m=AllCheck Guess=TCheck SCRF=Check GenChk RB3LYP/6-31G(d) Freq\\$$$$Si
 nglemol####0????\\0,1\C,0.8115856409,1.014845765,0.1533805848\C,-0.517
 942217,1.0764306274,-0.0639569621\C,-1.0624103916,-0.3232834983,-0.180
 9905785\C,0.1590249619,-1.1856304997,0.0028415705\C,1.232827413,-0.392
 7113867,0.1949268511\H,1.4817241524,1.8586321676,0.2801330596\H,-1.124
 9066329,1.9703680463,-0.1461473835\H,-1.8312770943,-0.5309470767,0.578
 8130191\H,-1.5463912007,-0.4968628119,-1.1542404099\H,0.1437797231,-2.
 2689063095,-0.0209634345\H,2.2539856452,-0.7218350235,0.3563036835\\Ve
 rsion=ES64L-G16RevC.01\State=1-A\HF=-194.1159204\RMSD=5.613e-09\RMSF=5
 .117e-05\ZeroPoint=0.0929424\Thermal=0.0970862\ETot=-194.0188343\HTot=
 -194.0178901\GTot=-194.0495762\Dipole=-0.1624839,-0.0494439,-0.0276862
 \DipoleDeriv=-0.1000154,0.1139788,0.0051121,0.0866673,0.2045795,0.0205
 822,0.0045727,0.02507,-0.1162385,0.070753,0.0746609,0.0510713,0.057844
 4,-0.0435216,0.013198,0.0507403,0.0159589,-0.2223435,-0.147733,-0.0330
 622,-0.0609427,-0.0330627,-0.0534823,-0.010793,-0.0609461,-0.0107968,0
 .2088074,0.095391,0.0204268,0.0540546,0.0372455,-0.0685748,0.0093122,0
 .054389,0.0065617,-0.2219285,0.0832602,-0.1916487,0.0292258,-0.164338,
 0.0182257,-0.0243443,0.0297674,-0.0288332,-0.1131571,0.0028958,-0.0858
 091,-0.0230927,-0.0868586,-0.0625848,-0.0181277,-0.0231101,-0.0179544,
 0.12896,0.0226261,0.0645611,-0.0160658,0.0702465,-0.0640131,0.0077683,
 -0.0159539,0.006834,0.1255968,-0.02491,-0.0267857,0.0813853,-0.0262042
 ,0.065445,0.022476,0.1010967,0.0283754,0.0089705,0.0341005,-0.0136951,
 -0.0733586,-0.0142767,0.0675944,-0.02564,-0.0930705,-0.0315388,-0.0521
 825,0.058694,0.0154751,-0.0111021,0.0097888,-0.1006872,-0.0028882,-0.0
 112141,-0.0019599,0.1262029,-0.0950623,0.061898,-0.0362872,0.0629475,0
 .0370192,0.0084566,-0.0362714,0.0082831,0.1273128\Polar=58.1253905,1.4
 904933,54.1645709,5.5648568,0.8293366,25.3802508\Quadrupole=1.4468122,
 0.6841906,-2.1310028,0.2714686,0.6102771,0.1020005\PG=C01 [X(C5H6)]\NI
 mag=0\\0.79074757,0.11669757,0.62656453,0.11145494,0.02901597,0.145563
 83,-0.47818435,0.00222364,-0.06895828,0.77487977,0.01247416,-0.1038798
 5,0.00115620,-0.13465930,0.62568332,-0.06875694,-0.00052870,-0.0697262
 5,0.10300783,-0.01242744,0.14881329,-0.04048086,-0.01921186,-0.0076272
 7,-0.08617067,-0.02601890,-0.00287026,0.56331831,-0.02575293,-0.003818
 74,-0.00437965,-0.04198748,-0.18751984,-0.00917765,0.04426179,0.429552
 00,-0.00775627,-0.00330423,0.00228069,-0.00318435,-0.00655266,-0.07247
 543,0.00737326,0.00542320,0.52507693,0.02031997,-0.03167907,0.00096490
 ,-0.01357549,0.01219224,-0.00346148,-0.14767791,0.06738453,-0.01114476
 ,0.60365355,-0.00656042,-0.05928882,-0.00245354,0.01341973,-0.05284775
 ,0.00099091,0.05141603,-0.12497909,0.00740661,0.12537163,0.79979329,0.
 00145869,-0.00658331,0.01077107,-0.00343718,0.00078887,0.00839168,-0.0
 1145816,0.01003170,-0.07350948,0.07997074,0.03373404,0.14593316,-0.112
 95366,0.04533928,-0.00814077,-0.02116217,0.03131486,-0.00461488,-0.049
 77402,-0.00509997,-0.00887647,-0.35670387,-0.18226300,-0.05261279,0.84
 464511,0.02431191,-0.21964763,0.00081550,0.05643371,-0.01710945,0.0087
 3015,-0.01164106,0.00563032,-0.00187414,-0.17201257,-0.22740773,-0.031
 59528,0.03485840,0.57176569,-0.00855412,0.00427228,-0.05932422,-0.0041
 2117,0.00460148,0.01007385,-0.00900621,-0.00079879,0.00212470,-0.05241
 074,-0.03328046,-0.06768217,0.11869799,0.01448224,0.14646734,-0.167057
 22,-0.13572343,-0.02413337,-0.00903259,-0.02650957,-0.00256621,-0.0043
 2088,0.00093376,-0.00273256,-0.00159260,0.00335665,-0.00044840,0.01048
 488,0.00904810,0.00185666,0.17079419,-0.13707619,-0.23397316,-0.026417
 11,0.00418915,0.00702710,0.00075982,0.00152504,-0.00048742,-0.00000313
 ,0.00133463,-0.00505383,0.00008973,-0.01885696,-0.00979671,-0.00329762
 ,0.15059968,0.24152287,-0.02415969,-0.02619447,-0.04096701,-0.00196257
 ,-0.00428649,0.00300023,-0.00272092,-0.00010029,0.01196520,-0.00048820
 ,0.00042204,0.00146493,0.00130765,0.00128925,0.00051269,0.02698160,0.0
 2902075,0.02967645,-0.00695895,0.02675570,-0.00127109,-0.14823833,0.13
 319542,-0.01720603,0.01092075,-0.01040640,0.00194711,-0.00225160,-0.00
 344416,-0.00031474,-0.00538130,-0.00069158,-0.00212641,0.00078527,-0.0
 0072564,0.00095627,0.14965718,-0.00353686,0.00460110,-0.00056906,0.135
 79214,-0.25760798,0.01779802,0.01659641,-0.01058262,0.00256268,-0.0028
 0879,-0.00352092,-0.00051626,-0.00016940,0.00005479,-0.00017373,0.0007
 1160,0.00033649,0.00022428,-0.14735034,0.26637129,-0.00186679,0.004410
 30,0.00375556,-0.01715502,0.01737123,-0.03010831,0.00247832,-0.0018762
 1,-0.00179883,-0.00030243,-0.00062063,-0.00081089,-0.00211607,-0.00025
 947,0.00711878,0.00098450,-0.00001195,-0.00495731,0.01830702,-0.019388
 49,0.02328449,-0.00068159,0.00018829,0.00117233,-0.00711367,-0.0019972
 5,0.00506376,-0.16420580,-0.03286982,0.12934937,-0.01798401,-0.0060999
 2,0.01569541,-0.00251245,0.00152246,-0.00013034,-0.00029754,-0.0001834
 0,-0.00093508,0.00014644,-0.00035970,-0.00040716,0.18249032,-0.0012894
 0,-0.00512480,-0.00179350,-0.02320258,-0.00413516,0.02082715,-0.033024
 54,-0.05045498,0.03516077,0.01429124,0.00565985,-0.01458219,0.00291169
 ,-0.00318010,0.00237017,-0.00048205,0.00028470,-0.00259053,0.00086749,
 0.00017872,-0.00095481,0.03723664,0.05459678,-0.00096173,0.00001912,0.
 00013809,-0.00300109,-0.00035562,0.00201589,0.12411228,0.03359336,-0.1
 6182418,-0.00380750,-0.00164949,0.00309114,-0.00099550,-0.00034003,0.0
 0002404,-0.00011204,-0.00005953,-0.00062835,0.00035942,0.00052831,0.00
 023264,-0.13702110,-0.03700343,0.18010537,-0.00052390,0.00026715,-0.00
 139813,-0.00544438,-0.00172764,-0.00752099,-0.08686209,-0.01662995,-0.
 10455161,-0.01223711,-0.00561171,-0.02121295,-0.00262427,0.00136467,-0
 .00069385,-0.00063952,-0.00023347,0.00090538,0.00013862,-0.00018597,0.
 00036183,0.01015449,0.00341581,0.02091670,0.09886547,-0.00179340,-0.00
 517795,0.00107969,-0.01533162,-0.00318505,-0.02734363,-0.01647529,-0.0
 4763884,-0.03720587,0.00880653,0.00497981,0.01854986,0.00351367,-0.003
 12533,-0.00144237,-0.00129455,0.00018637,0.00232364,0.00053048,0.00015
 926,0.00118152,0.00251113,0.00172061,0.00556821,0.01951086,0.05155207,
 0.00066631,-0.00015122,0.00003346,-0.00014069,-0.00043886,-0.00060348,
 -0.09931445,-0.03563863,-0.24198340,-0.00102555,-0.00010465,-0.0019755
 8,0.00024089,0.00068615,0.00008141,0.00005560,0.00001614,-0.00018805,-
 0.00036652,-0.00062109,0.00025986,-0.00971815,-0.00359988,-0.02261302,
 0.11021121,0.03954512,0.26677395,-0.00407386,-0.00215494,-0.00194008,-
 0.00548363,0.00209930,-0.00073704,0.00721210,0.02222833,0.00197926,-0.
 05761365,-0.00182946,-0.00496450,0.00718646,-0.02501776,0.00003567,0.0
 0091359,-0.00124922,0.00000013,0.00110421,0.00129080,-0.00017193,0.000
 39358,-0.00070528,0.00063219,0.00029799,-0.00045770,-0.00062282,0.0494
 4926,-0.00267713,-0.00127467,-0.00061197,0.00146393,-0.00023457,0.0002
 5075,-0.00477452,-0.00681172,-0.00087621,-0.00442622,-0.34975565,-0.00
 706090,0.00527488,-0.00978201,0.00059642,0.00035112,-0.00049755,0.0000
 3294,-0.00035141,-0.00034251,-0.00010978,0.00045439,-0.00004548,-0.000
 22132,0.00032628,-0.00002986,0.00033841,0.00482414,0.36826332,-0.00195
 025,-0.00052623,0.00714083,-0.00074951,0.00035505,-0.00086521,0.001448
 27,0.00356273,-0.00186116,-0.00501563,-0.00663462,-0.02858500,0.000631
 36,-0.00438250,0.00399324,0.00003159,-0.00023012,0.00076392,-0.0002042
 3,0.00016013,0.00227414,-0.00088781,0.00057751,0.00020972,0.00093536,-
 0.00077990,0.00028961,0.00482769,0.00762749,0.02160012,-0.00015315,-0.
 00270235,-0.00012318,-0.00047448,-0.00036334,-0.00033776,-0.00195893,-
 0.00206186,-0.00240297,-0.01433728,0.01224463,-0.00267611,-0.31120471,
 0.08182372,-0.04354749,-0.00003758,0.00067637,0.00011544,0.00007771,0.
 00002011,-0.00011227,-0.00038975,-0.00001902,-0.00012162,-0.00112530,0
 .00047988,0.00001416,0.00061395,-0.00046544,0.00093315,0.32898953,0.02
 520270,0.00101999,0.00415748,0.00165868,-0.00619075,0.00012062,-0.0026
 5311,-0.00288910,-0.00073701,-0.01845415,0.01242083,-0.00285627,0.0831
 7655,-0.08740184,0.01267038,-0.00099132,0.00045113,-0.00014111,0.00162
 045,0.00035236,0.00025829,-0.00040282,0.00049987,-0.00007959,-0.000496
 04,0.00055890,-0.00003148,0.00097179,0.00051071,0.00027045,-0.08963271
 ,0.08066790,0.00042585,-0.00042951,0.00033396,-0.00029798,-0.00021175,
 0.00148374,-0.00241486,-0.00063978,0.01200496,-0.00327934,0.00218979,0
 .00291115,-0.04352141,0.01244813,-0.04338966,0.00008263,0.00013302,-0.
 00064270,-0.00008081,-0.00000478,0.00074987,-0.00218123,0.00158874,-0.
 00075135,0.00204706,-0.00147627,-0.00007477,0.00096145,0.00003417,-0.0
 0496022,0.04825865,-0.01363176,0.03233502\\-0.00010922,-0.00001386,-0.
 00001630,0.00015487,0.00002323,0.00002615,0.00002179,0.00000631,0.0000
 0138,0.00014238,0.00006796,0.00002770,-0.00009980,-0.00004988,-0.00001
 999,-0.00006372,0.00001475,-0.00001025,-0.00000030,-0.00000735,-0.0000
 0031,0.00000545,0.00000067,-0.00002106,-0.00000249,0.00000022,0.000021
 49,-0.00000450,0.00000583,-0.00000033,-0.00004446,-0.00004788,-0.00000
 850\\\@
 The archive entry for this job was punched.


 TERRY FORSTER, PORTLY ATLANTA BRAVES RELIEVER,
 ANNOUNCING THAT HE WAS GOING TO A FAT FARM:
 "A WAIST IS A TERRIBLE THING TO MIND."
 Job cpu time:       0 days  0 hours  2 minutes 49.5 seconds.
 Elapsed time:       0 days  0 hours  0 minutes  5.6 seconds.
 File lengths (MBytes):  RWF=     90 Int=      0 D2E=      0 Chk=      3 Scr=      2
 Normal termination of Gaussian 16 at Thu Dec  7 02:05:03 2023.
