 Entering Gaussian System, Link 0=g16
 Initial command:
 /public/home/jackie_lijiaqi/g16/l1.exe "/public/home/jackie_lijiaqi/g16/scratch/Gau-249604.inp" -scrdir="/public/home/jackie_lijiaqi/g16/scratch/"
 Entering Link 1 = /public/home/jackie_lijiaqi/g16/l1.exe PID=    249605.
  
 Copyright (c) 1988-2019, Gaussian, Inc.  All Rights Reserved.
  
 This is part of the Gaussian(R) 16 program.  It is based on
 the Gaussian(R) 09 system (copyright 2009, Gaussian, Inc.),
 the Gaussian(R) 03 system (copyright 2003, Gaussian, Inc.),
 the Gaussian(R) 98 system (copyright 1998, Gaussian, Inc.),
 the Gaussian(R) 94 system (copyright 1995, Gaussian, Inc.),
 the Gaussian 92(TM) system (copyright 1992, Gaussian, Inc.),
 the Gaussian 90(TM) system (copyright 1990, Gaussian, Inc.),
 the Gaussian 88(TM) system (copyright 1988, Gaussian, Inc.),
 the Gaussian 86(TM) system (copyright 1986, Carnegie Mellon
 University), and the Gaussian 82(TM) system (copyright 1983,
 Carnegie Mellon University). Gaussian is a federally registered
 trademark of Gaussian, Inc.
  
 This software contains proprietary and confidential information,
 including trade secrets, belonging to Gaussian, Inc.
  
 This software is provided under written license and may be
 used, copied, transmitted, or stored only in accord with that
 written license.
  
 The following legend is applicable only to US Government
 contracts under FAR:
  
                    RESTRICTED RIGHTS LEGEND
  
 Use, reproduction and disclosure by the US Government is
 subject to restrictions as set forth in subparagraphs (a)
 and (c) of the Commercial Computer Software - Restricted
 Rights clause in FAR 52.227-19.
  
 Gaussian, Inc.
 340 Quinnipiac St., Bldg. 40, Wallingford CT 06492
  
  
 ---------------------------------------------------------------
 Warning -- This program may not be used in any manner that
 competes with the business of Gaussian, Inc. or will provide
 assistance to any competitor of Gaussian, Inc.  The licensee
 of this program is prohibited from giving any competitor of
 Gaussian, Inc. access to this program.  By using this program,
 the user acknowledges that Gaussian, Inc. is engaged in the
 business of creating and licensing software in the field of
 computational chemistry and represents and warrants to the
 licensee that it is not a competitor of Gaussian, Inc. and that
 it will not use this program in any manner prohibited above.
 ---------------------------------------------------------------
  

 Cite this work as:
 Gaussian 16, Revision C.01,
 M. J. Frisch, G. W. Trucks, H. B. Schlegel, G. E. Scuseria, 
 M. A. Robb, J. R. Cheeseman, G. Scalmani, V. Barone, 
 G. A. Petersson, H. Nakatsuji, X. Li, M. Caricato, A. V. Marenich, 
 J. Bloino, B. G. Janesko, R. Gomperts, B. Mennucci, H. P. Hratchian, 
 J. V. Ortiz, A. F. Izmaylov, J. L. Sonnenberg, D. Williams-Young, 
 F. Ding, F. Lipparini, F. Egidi, J. Goings, B. Peng, A. Petrone, 
 T. Henderson, D. Ranasinghe, V. G. Zakrzewski, J. Gao, N. Rega, 
 G. Zheng, W. Liang, M. Hada, M. Ehara, K. Toyota, R. Fukuda, 
 J. Hasegawa, M. Ishida, T. Nakajima, Y. Honda, O. Kitao, H. Nakai, 
 T. Vreven, K. Throssell, J. A. Montgomery, Jr., J. E. Peralta, 
 F. Ogliaro, M. J. Bearpark, J. J. Heyd, E. N. Brothers, K. N. Kudin, 
 V. N. Staroverov, T. A. Keith, R. Kobayashi, J. Normand, 
 K. Raghavachari, A. P. Rendell, J. C. Burant, S. S. Iyengar, 
 J. Tomasi, M. Cossi, J. M. Millam, M. Klene, C. Adamo, R. Cammi, 
 J. W. Ochterski, R. L. Martin, K. Morokuma, O. Farkas, 
 J. B. Foresman, and D. J. Fox, Gaussian, Inc., Wallingford CT, 2019.
 
 ******************************************
 Gaussian 16:  ES64L-G16RevC.01  3-Jul-2019
                28-Dec-2022 
 ******************************************
 %nprocshared=28
 Will use up to   28 processors via shared memory.
 %mem=56GB
 ---------------------------------
 #p opt freq b3lyp/6-31g* em=gd3bj
 ---------------------------------
 1/18=20,19=15,26=3,38=1/1,3;
 2/9=110,12=2,17=6,18=5,40=1/2;
 3/5=1,6=6,7=1,11=2,25=1,30=1,71=1,74=-5,124=41/1,2,3;
 4//1;
 5/5=2,38=5/2;
 6/7=2,8=2,9=2,10=2,28=1/1;
 7//1,2,3,16;
 1/18=20,19=15,26=3/3(2);
 2/9=110/2;
 99//99;
 2/9=110/2;
 3/5=1,6=6,7=1,11=2,25=1,30=1,71=1,74=-5,124=41/1,2,3;
 4/5=5,16=3,69=1/1;
 5/5=2,38=5/2;
 7//1,2,3,16;
 1/18=20,19=15,26=3/3(-5);
 2/9=110/2;
 6/7=2,8=2,9=2,10=2,19=2,28=1/1;
 99/9=1/99;
 Leave Link    1 at Wed Dec 28 13:52:23 2022, MaxMem=  7516192768 cpu:               1.6 elap:               0.1
 (Enter /public/home/jackie_lijiaqi/g16/l101.exe)
 ----------------------
 $$$$Singlemol####0????
 ----------------------
 Symbolic Z-matrix:
 Charge =  0 Multiplicity = 1
 C                    -0.00206  -1.26249   0.16489 
 N                     1.14399  -0.65007  -0.08483 
 N                     1.14606   0.64639  -0.08494 
 C                     0.00202   1.26251   0.16488 
 N                    -1.14394   0.6501   -0.08482 
 N                    -1.14608  -0.64644  -0.08496 
 H                    -0.00371  -2.31406   0.3945 
 H                     0.00386   2.31408   0.39442 
 
 ITRead=  0  0  0  0  0  0  0  0
 MicOpt= -1 -1 -1 -1 -1 -1 -1 -1
 NAtoms=      8 NQM=        8 NQMF=       0 NMMI=      0 NMMIF=      0
                NMic=       0 NMicF=      0.
                    Isotopes and Nuclear Properties:
 (Nuclear quadrupole moments (NQMom) in fm**2, nuclear magnetic moments (NMagM)
  in nuclear magnetons)

  Atom         1           2           3           4           5           6           7           8
 IAtWgt=          12          14          14          12          14          14           1           1
 AtmWgt=  12.0000000  14.0030740  14.0030740  12.0000000  14.0030740  14.0030740   1.0078250   1.0078250
 NucSpn=           0           2           2           0           2           2           1           1
 AtZEff=  -0.0000000  -0.0000000  -0.0000000  -0.0000000  -0.0000000  -0.0000000  -0.0000000  -0.0000000
 NQMom=    0.0000000   2.0440000   2.0440000   0.0000000   2.0440000   2.0440000   0.0000000   0.0000000
 NMagM=    0.0000000   0.4037610   0.4037610   0.0000000   0.4037610   0.4037610   2.7928460   2.7928460
 AtZNuc=   6.0000000   7.0000000   7.0000000   6.0000000   7.0000000   7.0000000   1.0000000   1.0000000
 Leave Link  101 at Wed Dec 28 13:52:23 2022, MaxMem=  7516192768 cpu:               3.5 elap:               0.2
 (Enter /public/home/jackie_lijiaqi/g16/l103.exe)

 GradGradGradGradGradGradGradGradGradGradGradGradGradGradGradGradGradGrad
 Berny optimization.
 Initialization pass.
                           ----------------------------
                           !    Initial Parameters    !
                           ! (Angstroms and Degrees)  !
 --------------------------                            --------------------------
 ! Name  Definition              Value          Derivative Info.                !
 --------------------------------------------------------------------------------
 ! R1    R(1,2)                  1.3232         estimate D2E/DX2                !
 ! R2    R(1,6)                  1.3231         estimate D2E/DX2                !
 ! R3    R(1,7)                  1.0763         estimate D2E/DX2                !
 ! R4    R(2,3)                  1.2965         estimate D2E/DX2                !
 ! R5    R(3,4)                  1.3232         estimate D2E/DX2                !
 ! R6    R(4,5)                  1.3231         estimate D2E/DX2                !
 ! R7    R(4,8)                  1.0763         estimate D2E/DX2                !
 ! R8    R(5,6)                  1.2965         estimate D2E/DX2                !
 ! A1    A(2,1,6)              119.8507         estimate D2E/DX2                !
 ! A2    A(2,1,7)              119.5887         estimate D2E/DX2                !
 ! A3    A(6,1,7)              119.5922         estimate D2E/DX2                !
 ! A4    A(1,2,3)              117.6607         estimate D2E/DX2                !
 ! A5    A(2,3,4)              117.6604         estimate D2E/DX2                !
 ! A6    A(3,4,5)              119.8476         estimate D2E/DX2                !
 ! A7    A(3,4,8)              119.5844         estimate D2E/DX2                !
 ! A8    A(5,4,8)              119.5995         estimate D2E/DX2                !
 ! A9    A(4,5,6)              117.665          estimate D2E/DX2                !
 ! A10   A(1,6,5)              117.6549         estimate D2E/DX2                !
 ! D1    D(6,1,2,3)             25.1649         estimate D2E/DX2                !
 ! D2    D(7,1,2,3)           -166.137          estimate D2E/DX2                !
 ! D3    D(2,1,6,5)            -25.1762         estimate D2E/DX2                !
 ! D4    D(7,1,6,5)            166.1262         estimate D2E/DX2                !
 ! D5    D(1,2,3,4)              0.0099         estimate D2E/DX2                !
 ! D6    D(2,3,4,5)            -25.1721         estimate D2E/DX2                !
 ! D7    D(2,3,4,8)            166.1294         estimate D2E/DX2                !
 ! D8    D(3,4,5,6)             25.1605         estimate D2E/DX2                !
 ! D9    D(8,4,5,6)           -166.1427         estimate D2E/DX2                !
 ! D10   D(4,5,6,1)              0.0127         estimate D2E/DX2                !
 --------------------------------------------------------------------------------
 Trust Radius=3.00D-01 FncErr=1.00D-07 GrdErr=1.00D-06 EigMax=2.50D+02 EigMin=1.00D-04
 Number of steps in this run=     38 maximum allowed number of steps=    100.
 GradGradGradGradGradGradGradGradGradGradGradGradGradGradGradGradGradGrad

 Leave Link  103 at Wed Dec 28 13:52:24 2022, MaxMem=  7516192768 cpu:               0.5 elap:               0.0
 (Enter /public/home/jackie_lijiaqi/g16/l202.exe)
                          Input orientation:                          
 ---------------------------------------------------------------------
 Center     Atomic      Atomic             Coordinates (Angstroms)
 Number     Number       Type             X           Y           Z
 ---------------------------------------------------------------------
      1          6           0       -0.002059   -1.262485    0.164889
      2          7           0        1.143986   -0.650070   -0.084832
      3          7           0        1.146063    0.646388   -0.084941
      4          6           0        0.002017    1.262511    0.164877
      5          7           0       -1.143944    0.650102   -0.084819
      6          7           0       -1.146078   -0.646444   -0.084958
      7          1           0       -0.003714   -2.314057    0.394503
      8          1           0        0.003857    2.314076    0.394424
 ---------------------------------------------------------------------
                    Distance matrix (angstroms):
                    1          2          3          4          5
     1  C    0.000000
     2  N    1.323190   0.000000
     3  N    2.241516   1.296460   0.000000
     4  C    2.524999   2.241520   1.323200   0.000000
     5  N    2.241483   2.631553   2.290010   1.323110   0.000000
     6  N    1.323144   2.290067   2.631601   2.241573   1.296548
     7  H    1.076350   2.077458   3.211867   3.583936   3.211871
     8  H    3.583924   3.211813   2.077404   1.076329   2.077482
                    6          7          8
     6  N    0.000000
     7  H    2.077453   0.000000
     8  H    3.211983   4.628139   0.000000
 Stoichiometry    C2H2N4
 Framework group  C1[X(C2H2N4)]
 Deg. of freedom    18
 Full point group                 C1      NOp   1
 Largest Abelian subgroup         C1      NOp   1
 Largest concise Abelian subgroup C1      NOp   1
                         Standard orientation:                         
 ---------------------------------------------------------------------
 Center     Atomic      Atomic             Coordinates (Angstroms)
 Number     Number       Type             X           Y           Z
 ---------------------------------------------------------------------
      1          6           0        1.262487    0.000177    0.155587
      2          7           0        0.648042    1.145135   -0.094134
      3          7           0       -0.648418    1.144914   -0.094243
      4          6           0       -1.262512   -0.000223    0.155575
      5          7           0       -0.648073   -1.145096   -0.094121
      6          7           0        0.648475   -1.144932   -0.094260
      7          1           0        2.314060    0.000386    0.385201
      8          1           0       -2.314079   -0.000246    0.385122
 ---------------------------------------------------------------------
 Rotational constants (GHZ):           6.8335858           6.7558874           3.4609921
 Leave Link  202 at Wed Dec 28 13:52:24 2022, MaxMem=  7516192768 cpu:               0.6 elap:               0.0
 (Enter /public/home/jackie_lijiaqi/g16/l301.exe)
 Standard basis: 6-31G(d) (6D, 7F)
 Ernie: Thresh=  0.10000D-02 Tol=  0.10000D-05 Strict=F.
 There are    94 symmetry adapted cartesian basis functions of A   symmetry.
 There are    94 symmetry adapted basis functions of A   symmetry.
    94 basis functions,   176 primitive gaussians,    94 cartesian basis functions
    21 alpha electrons       21 beta electrons
       nuclear repulsion energy       216.2779401869 Hartrees.
 IExCor=  402 DFT=T Ex+Corr=B3LYP ExCW=0 ScaHFX=  0.200000
 ScaDFX=  0.800000  0.720000  1.000000  0.810000 ScalE2=  1.000000  1.000000
 IRadAn=      5 IRanWt=     -1 IRanGd=            0 ICorTp=0 IEmpDi=141
 NAtoms=    8 NActive=    8 NUniq=    8 SFac= 1.00D+00 NAtFMM=   60 NAOKFM=F Big=F
 Integral buffers will be    131072 words long.
 Raffenetti 2 integral format.
 Two-electron integral symmetry is turned on.
 R6Disp:  Grimme-D3(BJ) Dispersion energy=       -0.0122661686 Hartrees.
 Nuclear repulsion after empirical dispersion term =      216.2656740182 Hartrees.
 Leave Link  301 at Wed Dec 28 13:52:24 2022, MaxMem=  7516192768 cpu:               0.8 elap:               0.0
 (Enter /public/home/jackie_lijiaqi/g16/l302.exe)
 NPDir=0 NMtPBC=     1 NCelOv=     1 NCel=       1 NClECP=     1 NCelD=      1
         NCelK=      1 NCelE2=     1 NClLst=     1 CellRange=     0.0.
 One-electron integrals computed using PRISM.
 One-electron integral symmetry used in STVInt
 NBasis=    94 RedAO= T EigKep=  1.43D-03  NBF=    94
 NBsUse=    94 1.00D-06 EigRej= -1.00D+00 NBFU=    94
 Precomputing XC quadrature grid using
 IXCGrd= 4 IRadAn=           5 IRanWt=          -1 IRanGd=           0 AccXCQ= 0.00D+00.
 Generated NRdTot=       0 NPtTot=           0 NUsed=           0 NTot=          32
 NSgBfM=    94    94    94    94    94 MxSgAt=     8 MxSgA2=     8.
 Leave Link  302 at Wed Dec 28 13:52:24 2022, MaxMem=  7516192768 cpu:               8.9 elap:               0.4
 (Enter /public/home/jackie_lijiaqi/g16/l303.exe)
 DipDrv:  MaxL=1.
 Leave Link  303 at Wed Dec 28 13:52:24 2022, MaxMem=  7516192768 cpu:               0.9 elap:               0.1
 (Enter /public/home/jackie_lijiaqi/g16/l401.exe)
 ExpMin= 1.61D-01 ExpMax= 4.17D+03 ExpMxC= 6.27D+02 IAcc=3 IRadAn=         5 AccDes= 0.00D+00
 Harris functional with IExCor=  402 and IRadAn=       5 diagonalized for initial guess.
 HarFok:  IExCor=  402 AccDes= 0.00D+00 IRadAn=         5 IDoV= 1 UseB2=F ITyADJ=14
 ICtDFT=  3500011 ScaDFX=  1.000000  1.000000  1.000000  1.000000
 FoFCou: FMM=F IPFlag=           0 FMFlag=      100000 FMFlg1=           0
         NFxFlg=           0 DoJE=T BraDBF=F KetDBF=T FulRan=T
         wScrn=  0.000000 ICntrl=       500 IOpCl=  0 I1Cent=   200000004 NGrid=           0
         NMat0=    1 NMatS0=      1 NMatT0=    0 NMatD0=    1 NMtDS0=    0 NMtDT0=    0
 Petite list used in FoFCou.
 Harris En= -296.259602421177    
 JPrj=0 DoOrth=F DoCkMO=F.
 Leave Link  401 at Wed Dec 28 13:52:25 2022, MaxMem=  7516192768 cpu:              12.8 elap:               0.5
 (Enter /public/home/jackie_lijiaqi/g16/l502.exe)
 Keep R1 ints in memory in canonical form, NReq=35682887.
 FoFCou: FMM=F IPFlag=           0 FMFlag=           0 FMFlg1=           0
         NFxFlg=           0 DoJE=F BraDBF=F KetDBF=F FulRan=T
         wScrn=  0.000000 ICntrl=       600 IOpCl=  0 I1Cent=           0 NGrid=           0
         NMat0=    1 NMatS0=   4465 NMatT0=    0 NMatD0=    1 NMtDS0=    0 NMtDT0=    0
 Symmetry not used in FoFCou.
 Two-electron integral symmetry not used.
 Closed shell SCF:
 Using DIIS extrapolation, IDIIS=  1040.
 NGot=  7516192768 LenX=  7506200851 LenY=  7506191574
 Requested convergence on RMS density matrix=1.00D-08 within 128 cycles.
 Requested convergence on MAX density matrix=1.00D-06.
 Requested convergence on             energy=1.00D-06.
 No special actions if energy rises.
 Integral accuracy reduced to 1.0D-05 until final iterations.

 Cycle   1  Pass 0  IDiag  1:
 E= -296.285741235171    
 DIIS: error= 1.85D-02 at cycle   1 NSaved=   1.
 NSaved= 1 IEnMin= 1 EnMin= -296.285741235171     IErMin= 1 ErrMin= 1.85D-02
 ErrMax= 1.85D-02  0.00D+00 EMaxC= 1.00D-01 BMatC= 4.56D-02 BMatP= 4.56D-02
 IDIUse=3 WtCom= 8.15D-01 WtEn= 1.85D-01
 Coeff-Com:  0.100D+01
 Coeff-En:   0.100D+01
 Coeff:      0.100D+01
 Gap=     0.134 Goal=   None    Shift=    0.000
 GapD=    0.134 DampG=1.000 DampE=0.500 DampFc=0.5000 IDamp=-1.
 Damping current iteration by 5.00D-01
 RMSDP=3.67D-03 MaxDP=3.81D-02              OVMax= 5.10D-02

 Cycle   2  Pass 0  IDiag  1:
 E= -296.305450974995     Delta-E=       -0.019709739825 Rises=F Damp=T
 DIIS: error= 6.70D-03 at cycle   2 NSaved=   2.
 NSaved= 2 IEnMin= 2 EnMin= -296.305450974995     IErMin= 2 ErrMin= 6.70D-03
 ErrMax= 6.70D-03  0.00D+00 EMaxC= 1.00D-01 BMatC= 5.91D-03 BMatP= 4.56D-02
 IDIUse=3 WtCom= 9.33D-01 WtEn= 6.70D-02
 Coeff-Com: -0.429D+00 0.143D+01
 Coeff-En:   0.000D+00 0.100D+01
 Coeff:     -0.400D+00 0.140D+01
 Gap=     0.141 Goal=   None    Shift=    0.000
 RMSDP=9.18D-04 MaxDP=1.03D-02 DE=-1.97D-02 OVMax= 2.27D-02

 Cycle   3  Pass 0  IDiag  1:
 E= -296.321203731818     Delta-E=       -0.015752756823 Rises=F Damp=F
 DIIS: error= 2.44D-03 at cycle   3 NSaved=   3.
 NSaved= 3 IEnMin= 3 EnMin= -296.321203731818     IErMin= 3 ErrMin= 2.44D-03
 ErrMax= 2.44D-03  0.00D+00 EMaxC= 1.00D-01 BMatC= 7.64D-04 BMatP= 5.91D-03
 IDIUse=3 WtCom= 9.76D-01 WtEn= 2.44D-02
 Coeff-Com: -0.184D+00 0.523D+00 0.662D+00
 Coeff-En:   0.000D+00 0.000D+00 0.100D+01
 Coeff:     -0.180D+00 0.510D+00 0.670D+00
 Gap=     0.142 Goal=   None    Shift=    0.000
 RMSDP=4.11D-04 MaxDP=4.94D-03 DE=-1.58D-02 OVMax= 1.09D-02

 Cycle   4  Pass 0  IDiag  1:
 E= -296.321640407684     Delta-E=       -0.000436675866 Rises=F Damp=F
 DIIS: error= 1.69D-03 at cycle   4 NSaved=   4.
 NSaved= 4 IEnMin= 4 EnMin= -296.321640407684     IErMin= 4 ErrMin= 1.69D-03
 ErrMax= 1.69D-03  0.00D+00 EMaxC= 1.00D-01 BMatC= 2.66D-04 BMatP= 7.64D-04
 IDIUse=3 WtCom= 9.83D-01 WtEn= 1.69D-02
 Coeff-Com: -0.461D-01 0.106D+00 0.388D+00 0.552D+00
 Coeff-En:   0.000D+00 0.000D+00 0.267D+00 0.733D+00
 Coeff:     -0.453D-01 0.105D+00 0.386D+00 0.555D+00
 Gap=     0.142 Goal=   None    Shift=    0.000
 RMSDP=1.49D-04 MaxDP=2.59D-03 DE=-4.37D-04 OVMax= 4.64D-03

 Cycle   5  Pass 0  IDiag  1:
 E= -296.321862744666     Delta-E=       -0.000222336982 Rises=F Damp=F
 DIIS: error= 2.56D-04 at cycle   5 NSaved=   5.
 NSaved= 5 IEnMin= 5 EnMin= -296.321862744666     IErMin= 5 ErrMin= 2.56D-04
 ErrMax= 2.56D-04  0.00D+00 EMaxC= 1.00D-01 BMatC= 6.36D-06 BMatP= 2.66D-04
 IDIUse=3 WtCom= 9.97D-01 WtEn= 2.56D-03
 Coeff-Com: -0.149D-01 0.295D-01 0.158D+00 0.264D+00 0.563D+00
 Coeff-En:   0.000D+00 0.000D+00 0.000D+00 0.000D+00 0.100D+01
 Coeff:     -0.149D-01 0.294D-01 0.158D+00 0.263D+00 0.565D+00
 Gap=     0.142 Goal=   None    Shift=    0.000
 RMSDP=2.66D-05 MaxDP=3.92D-04 DE=-2.22D-04 OVMax= 5.10D-04

 Cycle   6  Pass 0  IDiag  1:
 E= -296.321868307745     Delta-E=       -0.000005563079 Rises=F Damp=F
 DIIS: error= 6.62D-06 at cycle   6 NSaved=   6.
 NSaved= 6 IEnMin= 6 EnMin= -296.321868307745     IErMin= 6 ErrMin= 6.62D-06
 ErrMax= 6.62D-06  0.00D+00 EMaxC= 1.00D-01 BMatC= 8.67D-09 BMatP= 6.36D-06
 IDIUse=1 WtCom= 1.00D+00 WtEn= 0.00D+00
 Coeff-Com: -0.974D-03 0.161D-02 0.110D-01 0.191D-01 0.532D-01 0.916D+00
 Coeff:     -0.974D-03 0.161D-02 0.110D-01 0.191D-01 0.532D-01 0.916D+00
 Gap=     0.142 Goal=   None    Shift=    0.000
 RMSDP=2.30D-06 MaxDP=3.49D-05 DE=-5.56D-06 OVMax= 8.01D-05

 Initial convergence to 1.0D-05 achieved.  Increase integral accuracy.
 Cycle   7  Pass 1  IDiag  1:
 E= -296.321872917319     Delta-E=       -0.000004609574 Rises=F Damp=F
 DIIS: error= 1.37D-05 at cycle   1 NSaved=   1.
 NSaved= 1 IEnMin= 1 EnMin= -296.321872917319     IErMin= 1 ErrMin= 1.37D-05
 ErrMax= 1.37D-05  0.00D+00 EMaxC= 1.00D-01 BMatC= 1.95D-08 BMatP= 1.95D-08
 IDIUse=1 WtCom= 1.00D+00 WtEn= 0.00D+00
 Coeff-Com:  0.100D+01
 Coeff:      0.100D+01
 Gap=     0.142 Goal=   None    Shift=    0.000
 RMSDP=2.30D-06 MaxDP=3.49D-05 DE=-4.61D-06 OVMax= 1.89D-04

 Cycle   8  Pass 1  IDiag  1:
 E= -296.321872826749     Delta-E=        0.000000090570 Rises=F Damp=F
 DIIS: error= 3.48D-05 at cycle   2 NSaved=   2.
 NSaved= 2 IEnMin= 1 EnMin= -296.321872917319     IErMin= 1 ErrMin= 1.37D-05
 ErrMax= 3.48D-05  0.00D+00 EMaxC= 1.00D-01 BMatC= 1.11D-07 BMatP= 1.95D-08
 IDIUse=1 WtCom= 1.00D+00 WtEn= 0.00D+00
 Coeff-Com:  0.709D+00 0.291D+00
 Coeff:      0.709D+00 0.291D+00
 Gap=     0.142 Goal=   None    Shift=    0.000
 RMSDP=3.33D-06 MaxDP=5.12D-05 DE= 9.06D-08 OVMax= 1.40D-04

 Cycle   9  Pass 1  IDiag  1:
 E= -296.321872937453     Delta-E=       -0.000000110704 Rises=F Damp=F
 DIIS: error= 1.02D-06 at cycle   3 NSaved=   3.
 NSaved= 3 IEnMin= 3 EnMin= -296.321872937453     IErMin= 3 ErrMin= 1.02D-06
 ErrMax= 1.02D-06  0.00D+00 EMaxC= 1.00D-01 BMatC= 1.36D-10 BMatP= 1.95D-08
 IDIUse=1 WtCom= 1.00D+00 WtEn= 0.00D+00
 Coeff-Com:  0.346D-01 0.380D-01 0.927D+00
 Coeff:      0.346D-01 0.380D-01 0.927D+00
 Gap=     0.142 Goal=   None    Shift=    0.000
 RMSDP=2.29D-07 MaxDP=3.42D-06 DE=-1.11D-07 OVMax= 7.19D-06

 Cycle  10  Pass 1  IDiag  1:
 E= -296.321872937446     Delta-E=        0.000000000007 Rises=F Damp=F
 DIIS: error= 1.17D-06 at cycle   4 NSaved=   4.
 NSaved= 4 IEnMin= 3 EnMin= -296.321872937453     IErMin= 3 ErrMin= 1.02D-06
 ErrMax= 1.17D-06  0.00D+00 EMaxC= 1.00D-01 BMatC= 1.57D-10 BMatP= 1.36D-10
 IDIUse=1 WtCom= 1.00D+00 WtEn= 0.00D+00
 Coeff-Com: -0.107D-01 0.115D-01 0.617D+00 0.383D+00
 Coeff:     -0.107D-01 0.115D-01 0.617D+00 0.383D+00
 Gap=     0.142 Goal=   None    Shift=    0.000
 RMSDP=1.32D-07 MaxDP=1.94D-06 DE= 6.71D-12 OVMax= 5.24D-06

 Cycle  11  Pass 1  IDiag  1:
 E= -296.321872937587     Delta-E=       -0.000000000141 Rises=F Damp=F
 DIIS: error= 1.80D-07 at cycle   5 NSaved=   5.
 NSaved= 5 IEnMin= 5 EnMin= -296.321872937587     IErMin= 5 ErrMin= 1.80D-07
 ErrMax= 1.80D-07  0.00D+00 EMaxC= 1.00D-01 BMatC= 4.78D-12 BMatP= 1.36D-10
 IDIUse=1 WtCom= 1.00D+00 WtEn= 0.00D+00
 Coeff-Com: -0.880D-02 0.259D-02 0.241D+00 0.204D+00 0.561D+00
 Coeff:     -0.880D-02 0.259D-02 0.241D+00 0.204D+00 0.561D+00
 Gap=     0.142 Goal=   None    Shift=    0.000
 RMSDP=2.29D-08 MaxDP=3.75D-07 DE=-1.41D-10 OVMax= 7.74D-07

 Cycle  12  Pass 1  IDiag  1:
 E= -296.321872937592     Delta-E=       -0.000000000005 Rises=F Damp=F
 DIIS: error= 4.42D-08 at cycle   6 NSaved=   6.
 NSaved= 6 IEnMin= 6 EnMin= -296.321872937592     IErMin= 6 ErrMin= 4.42D-08
 ErrMax= 4.42D-08  0.00D+00 EMaxC= 1.00D-01 BMatC= 2.17D-13 BMatP= 4.78D-12
 IDIUse=1 WtCom= 1.00D+00 WtEn= 0.00D+00
 Coeff-Com: -0.420D-02 0.838D-03 0.996D-01 0.875D-01 0.273D+00 0.543D+00
 Coeff:     -0.420D-02 0.838D-03 0.996D-01 0.875D-01 0.273D+00 0.543D+00
 Gap=     0.142 Goal=   None    Shift=    0.000
 RMSDP=6.12D-09 MaxDP=9.29D-08 DE=-5.00D-12 OVMax= 1.85D-07

 SCF Done:  E(RB3LYP) =  -296.321872938     A.U. after   12 cycles
            NFock= 12  Conv=0.61D-08     -V/T= 2.0079
 KE= 2.939882611470D+02 PE=-1.122407360984D+03 EE= 3.158315528809D+02
 Leave Link  502 at Wed Dec 28 13:52:26 2022, MaxMem=  7516192768 cpu:              43.0 elap:               1.8
 (Enter /public/home/jackie_lijiaqi/g16/l601.exe)
 Copying SCF densities to generalized density rwf, IOpCl= 0 IROHF=0.

 **********************************************************************

            Population analysis using the SCF Density.

 **********************************************************************

 Orbital symmetries:
       Occupied  (A) (A) (A) (A) (A) (A) (A) (A) (A) (A) (A) (A)
                 (A) (A) (A) (A) (A) (A) (A) (A) (A)
       Virtual   (A) (A) (A) (A) (A) (A) (A) (A) (A) (A) (A) (A)
                 (A) (A) (A) (A) (A) (A) (A) (A) (A) (A) (A) (A)
                 (A) (A) (A) (A) (A) (A) (A) (A) (A) (A) (A) (A)
                 (A) (A) (A) (A) (A) (A) (A) (A) (A) (A) (A) (A)
                 (A) (A) (A) (A) (A) (A) (A) (A) (A) (A) (A) (A)
                 (A) (A) (A) (A) (A) (A) (A) (A) (A) (A) (A) (A)
                 (A)
 The electronic state is 1-A.
 Alpha  occ. eigenvalues --  -14.41024 -14.41023 -14.40990 -14.40990 -10.28755
 Alpha  occ. eigenvalues --  -10.28754  -1.12162  -1.02307  -0.90579  -0.75958
 Alpha  occ. eigenvalues --   -0.73304  -0.60273  -0.55547  -0.53134  -0.50155
 Alpha  occ. eigenvalues --   -0.39102  -0.36974  -0.36971  -0.34956  -0.31768
 Alpha  occ. eigenvalues --   -0.23975
 Alpha virt. eigenvalues --   -0.09766  -0.07658   0.06362   0.11845   0.12400
 Alpha virt. eigenvalues --    0.17297   0.23666   0.28717   0.32535   0.38604
 Alpha virt. eigenvalues --    0.44166   0.48976   0.49855   0.52073   0.54614
 Alpha virt. eigenvalues --    0.62759   0.62999   0.64018   0.66420   0.67860
 Alpha virt. eigenvalues --    0.70219   0.72846   0.75335   0.76325   0.81201
 Alpha virt. eigenvalues --    0.82322   0.83676   0.84857   0.86359   0.95385
 Alpha virt. eigenvalues --    0.96026   1.06868   1.10102   1.14157   1.20246
 Alpha virt. eigenvalues --    1.25567   1.34786   1.37751   1.45883   1.48610
 Alpha virt. eigenvalues --    1.49346   1.53337   1.59384   1.65357   1.68942
 Alpha virt. eigenvalues --    1.85855   1.90710   1.93095   2.08027   2.11415
 Alpha virt. eigenvalues --    2.14460   2.18546   2.24031   2.25539   2.40033
 Alpha virt. eigenvalues --    2.40365   2.46042   2.46912   2.47958   2.58421
 Alpha virt. eigenvalues --    2.64589   2.65461   2.69821   2.85469   2.86396
 Alpha virt. eigenvalues --    3.01313   3.39107   3.60445   3.68014   3.98111
 Alpha virt. eigenvalues --    4.01564   4.11024   4.36615
          Condensed to atoms (all electrons):
               1          2          3          4          5          6
     1  C    4.825658   0.361790  -0.058222  -0.028866  -0.058208   0.361843
     2  N    0.361790   6.720306   0.290227  -0.058215  -0.033208  -0.026931
     3  N   -0.058222   0.290227   6.720320   0.361794  -0.026933  -0.033201
     4  C   -0.028866  -0.058215   0.361794   4.825596   0.361879  -0.058218
     5  N   -0.058208  -0.033208  -0.026933   0.361879   6.720309   0.290162
     6  N    0.361843  -0.026931  -0.033201  -0.058218   0.290162   6.720332
     7  H    0.386287  -0.055071   0.004840  -0.000085   0.004840  -0.055068
     8  H   -0.000085   0.004840  -0.055073   0.386293  -0.055062   0.004838
               7          8
     1  C    0.386287  -0.000085
     2  N   -0.055071   0.004840
     3  N    0.004840  -0.055073
     4  C   -0.000085   0.386293
     5  N    0.004840  -0.055062
     6  N   -0.055068   0.004838
     7  H    0.516509   0.000049
     8  H    0.000049   0.516495
 Mulliken charges:
               1
     1  C    0.209803
     2  N   -0.203739
     3  N   -0.203751
     4  C    0.209822
     5  N   -0.203779
     6  N   -0.203759
     7  H    0.197699
     8  H    0.197704
 Sum of Mulliken charges =  -0.00000
 Mulliken charges with hydrogens summed into heavy atoms:
               1
     1  C    0.407502
     2  N   -0.203739
     3  N   -0.203751
     4  C    0.407526
     5  N   -0.203779
     6  N   -0.203759
 Electronic spatial extent (au):  <R**2>=            358.6098
 Charge=             -0.0000 electrons
 Dipole moment (field-independent basis, Debye):
    X=             -0.0001    Y=              0.0003    Z=              1.3419  Tot=              1.3419
 Quadrupole moment (field-independent basis, Debye-Ang):
   XX=            -27.5434   YY=            -42.5174   ZZ=            -32.1145
   XY=              0.0023   XZ=              0.0001   YZ=              0.0002
 Traceless Quadrupole moment (field-independent basis, Debye-Ang):
   XX=              6.5150   YY=             -8.4590   ZZ=              1.9440
   XY=              0.0023   XZ=              0.0001   YZ=              0.0002
 Octapole moment (field-independent basis, Debye-Ang**2):
  XXX=             -0.0011  YYY=              0.0006  ZZZ=              0.1673  XYY=             -0.0000
  XXY=              0.0011  XXZ=              4.2604  XZZ=              0.0000  YZZ=              0.0002
  YYZ=              2.2893  XYZ=             -0.0006
 Hexadecapole moment (field-independent basis, Debye-Ang**3):
 XXXX=           -180.2897 YYYY=           -232.9311 ZZZZ=            -31.9736 XXXY=              0.0110
 XXXZ=              0.0003 YYYX=              0.0002 YYYZ=              0.0004 ZZZX=             -0.0002
 ZZZY=              0.0001 XXYY=            -82.6165 XXZZ=            -42.1468 YYZZ=            -39.6078
 XXYZ=              0.0005 YYXZ=             -0.0001 ZZXY=              0.0006
 N-N= 2.162656740182D+02 E-N=-1.122407362467D+03  KE= 2.939882611470D+02
 No NMR shielding tensors so no spin-rotation constants.
 Leave Link  601 at Wed Dec 28 13:52:27 2022, MaxMem=  7516192768 cpu:               8.4 elap:               0.4
 (Enter /public/home/jackie_lijiaqi/g16/l701.exe)
 ... and contract with generalized density number  0.
 Compute integral first derivatives.
 R6Disp: Adding Grimme-D3(BJ) dispersion energy 1st derivatives to the gradient.
 Leave Link  701 at Wed Dec 28 13:52:27 2022, MaxMem=  7516192768 cpu:               6.9 elap:               0.3
 (Enter /public/home/jackie_lijiaqi/g16/l702.exe)
 L702 exits ... SP integral derivatives will be done elsewhere.
 Leave Link  702 at Wed Dec 28 13:52:27 2022, MaxMem=  7516192768 cpu:               1.3 elap:               0.2
 (Enter /public/home/jackie_lijiaqi/g16/l703.exe)
 Integral derivatives from FoFJK, PRISM(SPDF).
 Compute integral first derivatives, UseDBF=F ICtDFT=           0.
 Calling FoFJK, ICntrl=      2127 FMM=F ISym2X=0 I1Cent= 0 IOpClX= 0 NMat=1 NMatS=1 NMatT=0.
 FoFJK:  IHMeth= 1 ICntrl=    2127 DoSepK=F KAlg= 0 I1Cent=           0 FoldK=F
 IRaf=         0 NMat=       1 IRICut=       1 DoRegI=T DoRafI=F ISym2E= 0 IDoP0=0 IntGTp=1.
 FoFCou: FMM=F IPFlag=           0 FMFlag=      100000 FMFlg1=         800
         NFxFlg=           0 DoJE=F BraDBF=F KetDBF=F FulRan=T
         wScrn=  0.000000 ICntrl=      2127 IOpCl=  0 I1Cent=           0 NGrid=           0
         NMat0=    1 NMatS0=      1 NMatT0=    0 NMatD0=    1 NMtDS0=    0 NMtDT0=    0
 Symmetry not used in FoFCou.
 Leave Link  703 at Wed Dec 28 13:52:28 2022, MaxMem=  7516192768 cpu:              15.7 elap:               0.7
 (Enter /public/home/jackie_lijiaqi/g16/l716.exe)
 Dipole        =-2.15830865D-05 1.07601041D-04 5.27955560D-01
 ***** Axes restored to original set *****
 -------------------------------------------------------------------
 Center     Atomic                   Forces (Hartrees/Bohr)
 Number     Number              X              Y              Z
 -------------------------------------------------------------------
      1        6           0.000015099    0.000615715   -0.009469823
      2        7           0.022849603   -0.026006519    0.004856148
      3        7           0.022958281    0.025943038    0.004845209
      4        6           0.000043683   -0.000654136   -0.009468825
      5        7          -0.022905514    0.025969709    0.004840070
      6        7          -0.022945417   -0.025880951    0.004855404
      7        1          -0.000010517   -0.005831395   -0.000231938
      8        1          -0.000005218    0.005844539   -0.000226245
 -------------------------------------------------------------------
 Cartesian Forces:  Max     0.026006519 RMS     0.014629373
 Leave Link  716 at Wed Dec 28 13:52:28 2022, MaxMem=  7516192768 cpu:               0.7 elap:               0.0
 (Enter /public/home/jackie_lijiaqi/g16/l103.exe)

 GradGradGradGradGradGradGradGradGradGradGradGradGradGradGradGradGradGrad
 Berny optimization.
 FormGI is forming the generalized inverse of G from B-inverse, IUseBI=4.
 Internal  Forces:  Max     0.028573383 RMS     0.012336470
 Search for a local minimum.
 Step number   1 out of a maximum of   38
 All quantities printed in internal units (Hartrees-Bohrs-Radians)
 RMS Force = .12336D-01 SwitMx=.10000D-02 MixMth= 1
 Mixed Optimization -- RFO/linear search
 Second derivative matrix not updated -- first step.
 ITU=  0
     Eigenvalues ---    0.02687   0.02788   0.02790   0.02880   0.03274
     Eigenvalues ---    0.15831   0.15874   0.22730   0.23132   0.24666
     Eigenvalues ---    0.36439   0.36442   0.54052   0.58195   0.60701
     Eigenvalues ---    0.61151   0.65025   0.68174
 RFO step:  Lambda=-1.34818249D-02 EMin= 2.68707760D-02
 Linear search not attempted -- first point.
 Iteration  1 RMS(Cart)=  0.06462354 RMS(Int)=  0.00431305
 Iteration  2 RMS(Cart)=  0.00372451 RMS(Int)=  0.00250071
 Iteration  3 RMS(Cart)=  0.00000898 RMS(Int)=  0.00250069
 Iteration  4 RMS(Cart)=  0.00000000 RMS(Int)=  0.00250069
 ITry= 1 IFail=0 DXMaxC= 1.23D-01 DCOld= 1.00D+10 DXMaxT= 3.00D-01 DXLimC= 3.00D+00 Rises=F
 Variable       Old X    -DE/DX   Delta X   Delta X   Delta X     New X
                                 (Linear)    (Quad)   (Total)
    R1        2.50047   0.02011   0.00000   0.03218   0.03218   2.53265
    R2        2.50038   0.02012   0.00000   0.03220   0.03220   2.53258
    R3        2.03401   0.00565   0.00000   0.01495   0.01495   2.04895
    R4        2.44995   0.02857   0.00000   0.04109   0.04109   2.49105
    R5        2.50049   0.02011   0.00000   0.03219   0.03219   2.53267
    R6        2.50032   0.02014   0.00000   0.03222   0.03222   2.53254
    R7        2.03397   0.00566   0.00000   0.01498   0.01498   2.04895
    R8        2.45012   0.02853   0.00000   0.04104   0.04104   2.49116
    A1        2.09179   0.01440   0.00000   0.07755   0.07127   2.16306
    A2        2.08722  -0.00652   0.00000  -0.02582  -0.02770   2.05952
    A3        2.08728  -0.00652   0.00000  -0.02584  -0.02772   2.05956
    A4        2.05357  -0.00531   0.00000  -0.00408  -0.00857   2.04499
    A5        2.05356  -0.00533   0.00000  -0.00415  -0.00865   2.04491
    A6        2.09174   0.01442   0.00000   0.07762   0.07134   2.16307
    A7        2.08714  -0.00651   0.00000  -0.02577  -0.02765   2.05949
    A8        2.08741  -0.00654   0.00000  -0.02595  -0.02783   2.05957
    A9        2.05364  -0.00533   0.00000  -0.00417  -0.00866   2.04498
   A10        2.05347  -0.00530   0.00000  -0.00405  -0.00855   2.04492
    D1        0.43921  -0.00785   0.00000  -0.16910  -0.16964   0.26957
    D2       -2.89964  -0.00075   0.00000  -0.02271  -0.02267  -2.92231
    D3       -0.43941   0.00785   0.00000   0.16916   0.16971  -0.26970
    D4        2.89945   0.00075   0.00000   0.02276   0.02273   2.92218
    D5        0.00017  -0.00000   0.00000  -0.00005  -0.00005   0.00013
    D6       -0.43934   0.00785   0.00000   0.16908   0.16963  -0.26971
    D7        2.89951   0.00075   0.00000   0.02271   0.02267   2.92217
    D8        0.43913  -0.00785   0.00000  -0.16901  -0.16956   0.26958
    D9       -2.89974  -0.00074   0.00000  -0.02260  -0.02257  -2.92230
   D10        0.00022  -0.00000   0.00000  -0.00009  -0.00009   0.00013
         Item               Value     Threshold  Converged?
 Maximum Force            0.028573     0.000450     NO 
 RMS     Force            0.012336     0.000300     NO 
 Maximum Displacement     0.122781     0.001800     NO 
 RMS     Displacement     0.063838     0.001200     NO 
 Predicted change in Energy=-7.822723D-03
 Lowest energy point so far.  Saving SCF results.
 GradGradGradGradGradGradGradGradGradGradGradGradGradGradGradGradGradGrad

 Leave Link  103 at Wed Dec 28 13:52:29 2022, MaxMem=  7516192768 cpu:              11.0 elap:               0.5
 (Enter /public/home/jackie_lijiaqi/g16/l202.exe)
                          Input orientation:                          
 ---------------------------------------------------------------------
 Center     Atomic      Atomic             Coordinates (Angstroms)
 Number     Number       Type             X           Y           Z
 ---------------------------------------------------------------------
      1          6           0       -0.002068   -1.271032    0.119555
      2          7           0        1.181902   -0.661007   -0.029690
      3          7           0        1.184062    0.657197   -0.029788
      4          6           0        0.002058    1.271033    0.119523
      5          7           0       -1.181867    0.661046   -0.029699
      6          7           0       -1.184025   -0.657219   -0.029763
      7          1           0       -0.003762   -2.334763    0.329530
      8          1           0        0.003828    2.334767    0.329475
 ---------------------------------------------------------------------
                    Distance matrix (angstroms):
                    1          2          3          4          5
     1  C    0.000000
     2  N    1.340219   0.000000
     3  N    2.268760   1.318206   0.000000
     4  C    2.542068   2.268716   1.340232   0.000000
     5  N    2.268728   2.708362   2.365932   1.340160   0.000000
     6  N    1.340181   2.365930   2.708418   2.268752   1.318267
     7  H    1.084259   2.082378   3.239115   3.611911   3.239112
     8  H    3.611909   3.239062   2.082370   1.084257   2.082359
                    6          7          8
     6  N    0.000000
     7  H    2.082371   0.000000
     8  H    3.239140   4.669537   0.000000
 Stoichiometry    C2H2N4
 Framework group  C1[X(C2H2N4)]
 Deg. of freedom    18
 Full point group                 C1      NOp   1
 RotChk:  IX=0 Diff= 3.45D-05
 Largest Abelian subgroup         C1      NOp   1
 Largest concise Abelian subgroup C1      NOp   1
                         Standard orientation:                         
 ---------------------------------------------------------------------
 Center     Atomic      Atomic             Coordinates (Angstroms)
 Number     Number       Type             X           Y           Z
 ---------------------------------------------------------------------
      1          6           0        1.271036    0.000204    0.089534
      2          7           0        0.658885    1.183075   -0.059711
      3          7           0       -0.659320    1.182867   -0.059809
      4          6           0       -1.271031   -0.000238    0.089502
      5          7           0       -0.658918   -1.183065   -0.059720
      6          7           0        0.659349   -1.182855   -0.059785
      7          1           0        2.334769    0.000421    0.299509
      8          1           0       -2.334767   -0.000380    0.299454
 ---------------------------------------------------------------------
 Rotational constants (GHZ):           6.7688155           6.4010253           3.3144374
 Leave Link  202 at Wed Dec 28 13:52:29 2022, MaxMem=  7516192768 cpu:               0.6 elap:               0.0
 (Enter /public/home/jackie_lijiaqi/g16/l301.exe)
 Standard basis: 6-31G(d) (6D, 7F)
 Ernie: Thresh=  0.10000D-02 Tol=  0.10000D-05 Strict=F.
 There are    94 symmetry adapted cartesian basis functions of A   symmetry.
 There are    94 symmetry adapted basis functions of A   symmetry.
    94 basis functions,   176 primitive gaussians,    94 cartesian basis functions
    21 alpha electrons       21 beta electrons
       nuclear repulsion energy       212.8391654799 Hartrees.
 IExCor=  402 DFT=T Ex+Corr=B3LYP ExCW=0 ScaHFX=  0.200000
 ScaDFX=  0.800000  0.720000  1.000000  0.810000 ScalE2=  1.000000  1.000000
 IRadAn=      5 IRanWt=     -1 IRanGd=            0 ICorTp=0 IEmpDi=141
 NAtoms=    8 NActive=    8 NUniq=    8 SFac= 1.00D+00 NAtFMM=   60 NAOKFM=F Big=F
 Integral buffers will be    131072 words long.
 Raffenetti 2 integral format.
 Two-electron integral symmetry is turned on.
 R6Disp:  Grimme-D3(BJ) Dispersion energy=       -0.0122300231 Hartrees.
 Nuclear repulsion after empirical dispersion term =      212.8269354569 Hartrees.
 Leave Link  301 at Wed Dec 28 13:52:29 2022, MaxMem=  7516192768 cpu:               1.1 elap:               0.1
 (Enter /public/home/jackie_lijiaqi/g16/l302.exe)
 NPDir=0 NMtPBC=     1 NCelOv=     1 NCel=       1 NClECP=     1 NCelD=      1
         NCelK=      1 NCelE2=     1 NClLst=     1 CellRange=     0.0.
 One-electron integrals computed using PRISM.
 One-electron integral symmetry used in STVInt
 NBasis=    94 RedAO= T EigKep=  1.53D-03  NBF=    94
 NBsUse=    94 1.00D-06 EigRej= -1.00D+00 NBFU=    94
 Precomputing XC quadrature grid using
 IXCGrd= 4 IRadAn=           5 IRanWt=          -1 IRanGd=           0 AccXCQ= 0.00D+00.
 Generated NRdTot=       0 NPtTot=           0 NUsed=           0 NTot=          32
 NSgBfM=    94    94    94    94    94 MxSgAt=     8 MxSgA2=     8.
 Leave Link  302 at Wed Dec 28 13:52:29 2022, MaxMem=  7516192768 cpu:              10.0 elap:               0.4
 (Enter /public/home/jackie_lijiaqi/g16/l303.exe)
 DipDrv:  MaxL=1.
 Leave Link  303 at Wed Dec 28 13:52:29 2022, MaxMem=  7516192768 cpu:               2.0 elap:               0.2
 (Enter /public/home/jackie_lijiaqi/g16/l401.exe)
 Initial guess from the checkpoint file:  "/public/home/jackie_lijiaqi/g16/scratch/Gau-249605.chk"
 B after Tr=     0.000000   -0.000000    0.000000
         Rot=    1.000000    0.000002    0.000004   -0.000008 Ang=   0.00 deg.
 Guess basis will be translated and rotated to current coordinates.
 JPrj=2 DoOrth=T DoCkMO=T.
 Generating alternative initial guess.
 ExpMin= 1.61D-01 ExpMax= 4.17D+03 ExpMxC= 6.27D+02 IAcc=3 IRadAn=         5 AccDes= 0.00D+00
 Harris functional with IExCor=  402 and IRadAn=       5 diagonalized for initial guess.
 HarFok:  IExCor=  402 AccDes= 0.00D+00 IRadAn=         5 IDoV= 1 UseB2=F ITyADJ=14
 ICtDFT=  3500011 ScaDFX=  1.000000  1.000000  1.000000  1.000000
 FoFCou: FMM=F IPFlag=           0 FMFlag=      100000 FMFlg1=           0
         NFxFlg=           0 DoJE=T BraDBF=F KetDBF=T FulRan=T
         wScrn=  0.000000 ICntrl=       500 IOpCl=  0 I1Cent=   200000004 NGrid=           0
         NMat0=    1 NMatS0=      1 NMatT0=    0 NMatD0=    1 NMtDS0=    0 NMtDT0=    0
 Petite list used in FoFCou.
 Harris En= -296.267148785471    
 Leave Link  401 at Wed Dec 28 13:52:30 2022, MaxMem=  7516192768 cpu:              16.4 elap:               0.8
 (Enter /public/home/jackie_lijiaqi/g16/l502.exe)
 Keep R1 ints in memory in canonical form, NReq=35682887.
 FoFCou: FMM=F IPFlag=           0 FMFlag=           0 FMFlg1=           0
         NFxFlg=           0 DoJE=F BraDBF=F KetDBF=F FulRan=T
         wScrn=  0.000000 ICntrl=       600 IOpCl=  0 I1Cent=           0 NGrid=           0
         NMat0=    1 NMatS0=   4465 NMatT0=    0 NMatD0=    1 NMtDS0=    0 NMtDT0=    0
 Symmetry not used in FoFCou.
 Two-electron integral symmetry not used.
 Closed shell SCF:
 Using DIIS extrapolation, IDIIS=  1040.
 NGot=  7516192768 LenX=  7506200851 LenY=  7506191574
 Requested convergence on RMS density matrix=1.00D-08 within 128 cycles.
 Requested convergence on MAX density matrix=1.00D-06.
 Requested convergence on             energy=1.00D-06.
 No special actions if energy rises.
 Integral accuracy reduced to 1.0D-05 until final iterations.

 Cycle   1  Pass 0  IDiag  1:
 E= -296.314826993072    
 DIIS: error= 9.01D-03 at cycle   1 NSaved=   1.
 NSaved= 1 IEnMin= 1 EnMin= -296.314826993072     IErMin= 1 ErrMin= 9.01D-03
 ErrMax= 9.01D-03  0.00D+00 EMaxC= 1.00D-01 BMatC= 6.20D-03 BMatP= 6.20D-03
 IDIUse=3 WtCom= 9.10D-01 WtEn= 9.01D-02
 Coeff-Com:  0.100D+01
 Coeff-En:   0.100D+01
 Coeff:      0.100D+01
 Gap=     1.415 Goal=   None    Shift=    0.000
 GapD=    1.415 DampG=2.000 DampE=1.000 DampFc=2.0000 IDamp=-1.
 RMSDP=2.03D-03 MaxDP=1.68D-02              OVMax= 9.18D-02

 Cycle   2  Pass 0  IDiag  1:
 E= -296.329369832428     Delta-E=       -0.014542839355 Rises=F Damp=F
 DIIS: error= 1.81D-03 at cycle   2 NSaved=   2.
 NSaved= 2 IEnMin= 2 EnMin= -296.329369832428     IErMin= 2 ErrMin= 1.81D-03
 ErrMax= 1.81D-03  0.00D+00 EMaxC= 1.00D-01 BMatC= 2.97D-04 BMatP= 6.20D-03
 IDIUse=3 WtCom= 9.82D-01 WtEn= 1.81D-02
 Coeff-Com: -0.392D-01 0.104D+01
 Coeff-En:   0.000D+00 0.100D+01
 Coeff:     -0.385D-01 0.104D+01
 Gap=     0.137 Goal=   None    Shift=    0.000
 RMSDP=5.21D-04 MaxDP=4.76D-03 DE=-1.45D-02 OVMax= 2.60D-02

 Cycle   3  Pass 0  IDiag  1:
 E= -296.329911989119     Delta-E=       -0.000542156691 Rises=F Damp=F
 DIIS: error= 9.19D-04 at cycle   3 NSaved=   3.
 NSaved= 3 IEnMin= 3 EnMin= -296.329911989119     IErMin= 3 ErrMin= 9.19D-04
 ErrMax= 9.19D-04  0.00D+00 EMaxC= 1.00D-01 BMatC= 1.14D-04 BMatP= 2.97D-04
 IDIUse=3 WtCom= 9.91D-01 WtEn= 9.19D-03
 Coeff-Com: -0.450D-01 0.398D+00 0.647D+00
 Coeff-En:   0.000D+00 0.000D+00 0.100D+01
 Coeff:     -0.445D-01 0.394D+00 0.651D+00
 Gap=     0.137 Goal=   None    Shift=    0.000
 RMSDP=2.05D-04 MaxDP=2.01D-03 DE=-5.42D-04 OVMax= 9.52D-03

 Cycle   4  Pass 0  IDiag  1:
 E= -296.330046404329     Delta-E=       -0.000134415210 Rises=F Damp=F
 DIIS: error= 3.73D-04 at cycle   4 NSaved=   4.
 NSaved= 4 IEnMin= 4 EnMin= -296.330046404329     IErMin= 4 ErrMin= 3.73D-04
 ErrMax= 3.73D-04  0.00D+00 EMaxC= 1.00D-01 BMatC= 1.66D-05 BMatP= 1.14D-04
 IDIUse=3 WtCom= 9.96D-01 WtEn= 3.73D-03
 Coeff-Com: -0.100D-01 0.474D-01 0.283D+00 0.679D+00
 Coeff-En:   0.000D+00 0.000D+00 0.000D+00 0.100D+01
 Coeff:     -0.100D-01 0.472D-01 0.282D+00 0.680D+00
 Gap=     0.137 Goal=   None    Shift=    0.000
 RMSDP=7.49D-05 MaxDP=7.69D-04 DE=-1.34D-04 OVMax= 4.23D-03

 Cycle   5  Pass 0  IDiag  1:
 E= -296.330065727924     Delta-E=       -0.000019323595 Rises=F Damp=F
 DIIS: error= 2.03D-04 at cycle   5 NSaved=   5.
 NSaved= 5 IEnMin= 5 EnMin= -296.330065727924     IErMin= 5 ErrMin= 2.03D-04
 ErrMax= 2.03D-04  0.00D+00 EMaxC= 1.00D-01 BMatC= 4.50D-06 BMatP= 1.66D-05
 IDIUse=3 WtCom= 9.98D-01 WtEn= 2.03D-03
 Coeff-Com:  0.697D-02-0.946D-01 0.836D-02 0.411D+00 0.669D+00
 Coeff-En:   0.000D+00 0.000D+00 0.000D+00 0.000D+00 0.100D+01
 Coeff:      0.696D-02-0.944D-01 0.834D-02 0.410D+00 0.669D+00
 Gap=     0.137 Goal=   None    Shift=    0.000
 RMSDP=4.18D-05 MaxDP=3.22D-04 DE=-1.93D-05 OVMax= 2.64D-03

 Cycle   6  Pass 0  IDiag  1:
 E= -296.330071900898     Delta-E=       -0.000006172974 Rises=F Damp=F
 DIIS: error= 2.56D-05 at cycle   6 NSaved=   6.
 NSaved= 6 IEnMin= 6 EnMin= -296.330071900898     IErMin= 6 ErrMin= 2.56D-05
 ErrMax= 2.56D-05  0.00D+00 EMaxC= 1.00D-01 BMatC= 4.35D-08 BMatP= 4.50D-06
 IDIUse=1 WtCom= 1.00D+00 WtEn= 0.00D+00
 Coeff-Com:  0.184D-02-0.232D-01-0.174D-01 0.197D-01 0.763D-01 0.943D+00
 Coeff:      0.184D-02-0.232D-01-0.174D-01 0.197D-01 0.763D-01 0.943D+00
 Gap=     0.137 Goal=   None    Shift=    0.000
 RMSDP=1.08D-05 MaxDP=8.92D-05 DE=-6.17D-06 OVMax= 7.32D-04

 Cycle   7  Pass 0  IDiag  1:
 E= -296.330072053787     Delta-E=       -0.000000152889 Rises=F Damp=F
 DIIS: error= 2.03D-06 at cycle   7 NSaved=   7.
 NSaved= 7 IEnMin= 7 EnMin= -296.330072053787     IErMin= 7 ErrMin= 2.03D-06
 ErrMax= 2.03D-06  0.00D+00 EMaxC= 1.00D-01 BMatC= 7.63D-10 BMatP= 4.35D-08
 IDIUse=1 WtCom= 1.00D+00 WtEn= 0.00D+00
 Coeff-Com: -0.319D-04 0.104D-02-0.778D-03-0.101D-01-0.125D-01 0.764D-01
 Coeff-Com:  0.946D+00
 Coeff:     -0.319D-04 0.104D-02-0.778D-03-0.101D-01-0.125D-01 0.764D-01
 Coeff:      0.946D+00
 Gap=     0.137 Goal=   None    Shift=    0.000
 RMSDP=8.50D-07 MaxDP=1.08D-05 DE=-1.53D-07 OVMax= 3.71D-05

 Initial convergence to 1.0D-05 achieved.  Increase integral accuracy.
 Cycle   8  Pass 1  IDiag  1:
 E= -296.330074639065     Delta-E=       -0.000002585278 Rises=F Damp=F
 DIIS: error= 5.59D-06 at cycle   1 NSaved=   1.
 NSaved= 1 IEnMin= 1 EnMin= -296.330074639065     IErMin= 1 ErrMin= 5.59D-06
 ErrMax= 5.59D-06  0.00D+00 EMaxC= 1.00D-01 BMatC= 3.34D-09 BMatP= 3.34D-09
 IDIUse=1 WtCom= 1.00D+00 WtEn= 0.00D+00
 Coeff-Com:  0.100D+01
 Coeff:      0.100D+01
 Gap=     0.137 Goal=   None    Shift=    0.000
 RMSDP=8.50D-07 MaxDP=1.08D-05 DE=-2.59D-06 OVMax= 4.58D-05

 Cycle   9  Pass 1  IDiag  1:
 E= -296.330074634015     Delta-E=        0.000000005049 Rises=F Damp=F
 DIIS: error= 1.06D-05 at cycle   2 NSaved=   2.
 NSaved= 2 IEnMin= 1 EnMin= -296.330074639065     IErMin= 1 ErrMin= 5.59D-06
 ErrMax= 1.06D-05  0.00D+00 EMaxC= 1.00D-01 BMatC= 9.01D-09 BMatP= 3.34D-09
 IDIUse=1 WtCom= 1.00D+00 WtEn= 0.00D+00
 Coeff-Com:  0.644D+00 0.356D+00
 Coeff:      0.644D+00 0.356D+00
 Gap=     0.137 Goal=   None    Shift=    0.000
 RMSDP=1.10D-06 MaxDP=2.14D-05 DE= 5.05D-09 OVMax= 3.99D-05

 Cycle  10  Pass 1  IDiag  1:
 E= -296.330074642560     Delta-E=       -0.000000008545 Rises=F Damp=F
 DIIS: error= 2.54D-06 at cycle   3 NSaved=   3.
 NSaved= 3 IEnMin= 3 EnMin= -296.330074642560     IErMin= 3 ErrMin= 2.54D-06
 ErrMax= 2.54D-06  0.00D+00 EMaxC= 1.00D-01 BMatC= 4.51D-10 BMatP= 3.34D-09
 IDIUse=1 WtCom= 1.00D+00 WtEn= 0.00D+00
 Coeff-Com: -0.180D-01 0.178D+00 0.840D+00
 Coeff:     -0.180D-01 0.178D+00 0.840D+00
 Gap=     0.137 Goal=   None    Shift=    0.000
 RMSDP=2.35D-07 MaxDP=3.56D-06 DE=-8.54D-09 OVMax= 8.84D-06

 Cycle  11  Pass 1  IDiag  1:
 E= -296.330074642962     Delta-E=       -0.000000000402 Rises=F Damp=F
 DIIS: error= 7.30D-07 at cycle   4 NSaved=   4.
 NSaved= 4 IEnMin= 4 EnMin= -296.330074642962     IErMin= 4 ErrMin= 7.30D-07
 ErrMax= 7.30D-07  0.00D+00 EMaxC= 1.00D-01 BMatC= 5.60D-11 BMatP= 4.51D-10
 IDIUse=1 WtCom= 1.00D+00 WtEn= 0.00D+00
 Coeff-Com: -0.221D-01 0.117D+00 0.577D+00 0.329D+00
 Coeff:     -0.221D-01 0.117D+00 0.577D+00 0.329D+00
 Gap=     0.137 Goal=   None    Shift=    0.000
 RMSDP=7.01D-08 MaxDP=1.59D-06 DE=-4.02D-10 OVMax= 3.02D-06

 Cycle  12  Pass 1  IDiag  1:
 E= -296.330074643015     Delta-E=       -0.000000000053 Rises=F Damp=F
 DIIS: error= 4.07D-08 at cycle   5 NSaved=   5.
 NSaved= 5 IEnMin= 5 EnMin= -296.330074643015     IErMin= 5 ErrMin= 4.07D-08
 ErrMax= 4.07D-08  0.00D+00 EMaxC= 1.00D-01 BMatC= 2.23D-13 BMatP= 5.60D-11
 IDIUse=1 WtCom= 1.00D+00 WtEn= 0.00D+00
 Coeff-Com: -0.590D-02 0.275D-01 0.138D+00 0.101D+00 0.740D+00
 Coeff:     -0.590D-02 0.275D-01 0.138D+00 0.101D+00 0.740D+00
 Gap=     0.137 Goal=   None    Shift=    0.000
 RMSDP=7.10D-09 MaxDP=1.37D-07 DE=-5.31D-11 OVMax= 2.61D-07

 SCF Done:  E(RB3LYP) =  -296.330074643     A.U. after   12 cycles
            NFock= 12  Conv=0.71D-08     -V/T= 2.0090
 KE= 2.936772406994D+02 PE=-1.115299213830D+03 EE= 3.124649630305D+02
 Leave Link  502 at Wed Dec 28 13:52:31 2022, MaxMem=  7516192768 cpu:              30.5 elap:               1.3
 (Enter /public/home/jackie_lijiaqi/g16/l701.exe)
 ... and contract with generalized density number  0.
 Compute integral first derivatives.
 R6Disp: Adding Grimme-D3(BJ) dispersion energy 1st derivatives to the gradient.
 Leave Link  701 at Wed Dec 28 13:52:32 2022, MaxMem=  7516192768 cpu:               6.9 elap:               0.3
 (Enter /public/home/jackie_lijiaqi/g16/l702.exe)
 L702 exits ... SP integral derivatives will be done elsewhere.
 Leave Link  702 at Wed Dec 28 13:52:32 2022, MaxMem=  7516192768 cpu:               0.6 elap:               0.0
 (Enter /public/home/jackie_lijiaqi/g16/l703.exe)
 Integral derivatives from FoFJK, PRISM(SPDF).
 Compute integral first derivatives, UseDBF=F ICtDFT=           0.
 Calling FoFJK, ICntrl=      2127 FMM=F ISym2X=0 I1Cent= 0 IOpClX= 0 NMat=1 NMatS=1 NMatT=0.
 FoFJK:  IHMeth= 1 ICntrl=    2127 DoSepK=F KAlg= 0 I1Cent=           0 FoldK=F
 IRaf=         0 NMat=       1 IRICut=       1 DoRegI=T DoRafI=F ISym2E= 0 IDoP0=0 IntGTp=1.
 FoFCou: FMM=F IPFlag=           0 FMFlag=      100000 FMFlg1=         800
         NFxFlg=           0 DoJE=F BraDBF=F KetDBF=F FulRan=T
         wScrn=  0.000000 ICntrl=      2127 IOpCl=  0 I1Cent=           0 NGrid=           0
         NMat0=    1 NMatS0=      1 NMatT0=    0 NMatD0=    1 NMtDS0=    0 NMtDT0=    0
 Symmetry not used in FoFCou.
 Leave Link  703 at Wed Dec 28 13:52:32 2022, MaxMem=  7516192768 cpu:              13.3 elap:               0.5
 (Enter /public/home/jackie_lijiaqi/g16/l716.exe)
 Dipole        = 4.98121777D-06 5.78533658D-05 3.39849990D-01
 ***** Axes restored to original set *****
 -------------------------------------------------------------------
 Center     Atomic                   Forces (Hartrees/Bohr)
 Number     Number              X              Y              Z
 -------------------------------------------------------------------
      1        6           0.000020877    0.008337403   -0.001566773
      2        7           0.001629208   -0.009058794    0.002751259
      3        7           0.001642255    0.009047020    0.002758069
      4        6           0.000014035   -0.008329028   -0.001565371
      5        7          -0.001643875    0.009026519    0.002749605
      6        7          -0.001657805   -0.009024608    0.002756729
      7        1          -0.000002190   -0.000966241   -0.003941781
      8        1          -0.000002506    0.000967731   -0.003941738
 -------------------------------------------------------------------
 Cartesian Forces:  Max     0.009058794 RMS     0.004764041
 Leave Link  716 at Wed Dec 28 13:52:32 2022, MaxMem=  7516192768 cpu:               0.5 elap:               0.0
 (Enter /public/home/jackie_lijiaqi/g16/l103.exe)

 GradGradGradGradGradGradGradGradGradGradGradGradGradGradGradGradGradGrad
 Berny optimization.
 Using GEDIIS/GDIIS optimizer.
 FormGI is forming the generalized inverse of G from B-inverse, IUseBI=4.
 Internal  Forces:  Max     0.005544977 RMS     0.002981828
 Search for a local minimum.
 Step number   2 out of a maximum of   38
 All quantities printed in internal units (Hartrees-Bohrs-Radians)
 RMS Force = .29818D-02 SwitMx=.10000D-02 MixMth= 1
 Mixed Optimization -- RFO/linear search
 Update second derivatives using D2CorX and points    1    2
 DE= -8.20D-03 DEPred=-7.82D-03 R= 1.05D+00
 TightC=F SS=  1.41D+00  RLast= 3.72D-01 DXNew= 5.0454D-01 1.1171D+00
 Trust test= 1.05D+00 RLast= 3.72D-01 DXMaxT set to 5.05D-01
 ITU=  1  0
 Use linear search instead of GDIIS.
     Eigenvalues ---    0.02191   0.02687   0.02713   0.02760   0.03728
     Eigenvalues ---    0.15990   0.15993   0.19560   0.23420   0.24886
     Eigenvalues ---    0.36440   0.36520   0.54125   0.58774   0.60999
     Eigenvalues ---    0.64728   0.65230   0.65382
 RFO step:  Lambda=-4.03846412D-03 EMin= 2.19069986D-02
 Quartic linear search produced a step of  0.43902.
 Iteration  1 RMS(Cart)=  0.10188852 RMS(Int)=  0.00746875
 Iteration  2 RMS(Cart)=  0.00864752 RMS(Int)=  0.00239453
 Iteration  3 RMS(Cart)=  0.00001569 RMS(Int)=  0.00239445
 Iteration  4 RMS(Cart)=  0.00000002 RMS(Int)=  0.00239445
 ITry= 1 IFail=0 DXMaxC= 3.09D-01 DCOld= 1.00D+10 DXMaxT= 5.05D-01 DXLimC= 3.00D+00 Rises=F
 Variable       Old X    -DE/DX   Delta X   Delta X   Delta X     New X
                                 (Linear)    (Quad)   (Total)
    R1        2.53265  -0.00054   0.01413  -0.00789   0.00623   2.53888
    R2        2.53258  -0.00054   0.01413  -0.00788   0.00626   2.53883
    R3        2.04895   0.00018   0.00656  -0.00234   0.00422   2.05317
    R4        2.49105   0.00537   0.01804   0.00257   0.02061   2.51166
    R5        2.53267  -0.00055   0.01413  -0.00790   0.00623   2.53890
    R6        2.53254  -0.00052   0.01415  -0.00785   0.00629   2.53883
    R7        2.04895   0.00019   0.00658  -0.00235   0.00423   2.05318
    R8        2.49116   0.00535   0.01802   0.00254   0.02056   2.51172
    A1        2.16306   0.00554   0.03129   0.02532   0.05159   2.21465
    A2        2.05952  -0.00280  -0.01216  -0.01467  -0.02663   2.03289
    A3        2.05956  -0.00280  -0.01217  -0.01468  -0.02665   2.03291
    A4        2.04499  -0.00246  -0.00376  -0.00505  -0.01405   2.03094
    A5        2.04491  -0.00245  -0.00380  -0.00495  -0.01399   2.03092
    A6        2.16307   0.00554   0.03132   0.02528   0.05158   2.21466
    A7        2.05949  -0.00279  -0.01214  -0.01464  -0.02658   2.03291
    A8        2.05957  -0.00280  -0.01222  -0.01468  -0.02669   2.03288
    A9        2.04498  -0.00246  -0.00380  -0.00501  -0.01405   2.03093
   A10        2.04492  -0.00245  -0.00375  -0.00499  -0.01398   2.03094
    D1        0.26957  -0.00231  -0.07447  -0.06573  -0.14047   0.12910
    D2       -2.92231  -0.00361  -0.00995  -0.16301  -0.17296  -3.09527
    D3       -0.26970   0.00231   0.07450   0.06581   0.14058  -0.12912
    D4        2.92218   0.00361   0.00998   0.16309   0.17308   3.09525
    D5        0.00013  -0.00000  -0.00002  -0.00008  -0.00010   0.00003
    D6       -0.26971   0.00232   0.07447   0.06583   0.14057  -0.12914
    D7        2.92217   0.00361   0.00995   0.16310   0.17306   3.09523
    D8        0.26958  -0.00231  -0.07444  -0.06575  -0.14046   0.12912
    D9       -2.92230  -0.00361  -0.00991  -0.16303  -0.17294  -3.09525
   D10        0.00013  -0.00000  -0.00004  -0.00008  -0.00012   0.00001
         Item               Value     Threshold  Converged?
 Maximum Force            0.005545     0.000450     NO 
 RMS     Force            0.002982     0.000300     NO 
 Maximum Displacement     0.309196     0.001800     NO 
 RMS     Displacement     0.102222     0.001200     NO 
 Predicted change in Energy=-2.395669D-03
 Lowest energy point so far.  Saving SCF results.
 GradGradGradGradGradGradGradGradGradGradGradGradGradGradGradGradGradGrad

 Leave Link  103 at Wed Dec 28 13:52:33 2022, MaxMem=  7516192768 cpu:              12.8 elap:               0.6
 (Enter /public/home/jackie_lijiaqi/g16/l202.exe)
                          Input orientation:                          
 ---------------------------------------------------------------------
 Center     Atomic      Atomic             Coordinates (Angstroms)
 Number     Number       Type             X           Y           Z
 ---------------------------------------------------------------------
      1          6           0       -0.002040   -1.261172    0.120774
      2          7           0        1.200713   -0.666510    0.051476
      3          7           0        1.202882    0.662603    0.051441
      4          6           0        0.002058    1.261175    0.120740
      5          7           0       -1.200673    0.666531    0.051464
      6          7           0       -1.202831   -0.662614    0.051476
      7          1           0       -0.003791   -2.346724    0.165911
      8          1           0        0.003810    2.346733    0.165861
 ---------------------------------------------------------------------
                    Distance matrix (angstroms):
                    1          2          3          4          5
     1  C    0.000000
     2  N    1.343518   0.000000
     3  N    2.271025   1.329115   0.000000
     4  C    2.522351   2.271023   1.343529   0.000000
     5  N    2.271027   2.746571   2.403559   1.343489   0.000000
     6  N    1.343493   2.403547   2.746572   2.271018   1.329147
     7  H    1.086491   2.070518   3.244259   3.608187   3.244276
     8  H    3.608192   3.244272   2.070547   1.086497   2.070494
                    6          7          8
     6  N    0.000000
     7  H    2.070511   0.000000
     8  H    3.244263   4.693464   0.000000
 Stoichiometry    C2H2N4
 Framework group  C1[X(C2H2N4)]
 Deg. of freedom    18
 Full point group                 C1      NOp   1
 RotChk:  IX=0 Diff= 3.40D-04
 Largest Abelian subgroup         C1      NOp   1
 Largest concise Abelian subgroup C1      NOp   1
                         Standard orientation:                         
 ---------------------------------------------------------------------
 Center     Atomic      Atomic             Coordinates (Angstroms)
 Number     Number       Type             X           Y           Z
 ---------------------------------------------------------------------
      1          6           0        1.261176   -0.000095    0.044063
      2          7           0        0.664642    1.201731   -0.025235
      3          7           0       -0.664472    1.201831   -0.025270
      4          6           0       -1.261175    0.000076    0.044029
      5          7           0       -0.664659   -1.201727   -0.025247
      6          7           0        0.664488   -1.201816   -0.025235
      7          1           0        2.346729   -0.000157    0.089200
      8          1           0       -2.346734    0.000138    0.089150
 ---------------------------------------------------------------------
 Rotational constants (GHZ):           6.8193461           6.2396623           3.2624379
 Leave Link  202 at Wed Dec 28 13:52:33 2022, MaxMem=  7516192768 cpu:               0.7 elap:               0.0
 (Enter /public/home/jackie_lijiaqi/g16/l301.exe)
 Standard basis: 6-31G(d) (6D, 7F)
 Ernie: Thresh=  0.10000D-02 Tol=  0.10000D-05 Strict=F.
 There are    94 symmetry adapted cartesian basis functions of A   symmetry.
 There are    94 symmetry adapted basis functions of A   symmetry.
    94 basis functions,   176 primitive gaussians,    94 cartesian basis functions
    21 alpha electrons       21 beta electrons
       nuclear repulsion energy       211.7858436316 Hartrees.
 IExCor=  402 DFT=T Ex+Corr=B3LYP ExCW=0 ScaHFX=  0.200000
 ScaDFX=  0.800000  0.720000  1.000000  0.810000 ScalE2=  1.000000  1.000000
 IRadAn=      5 IRanWt=     -1 IRanGd=            0 ICorTp=0 IEmpDi=141
 NAtoms=    8 NActive=    8 NUniq=    8 SFac= 1.00D+00 NAtFMM=   60 NAOKFM=F Big=F
 Integral buffers will be    131072 words long.
 Raffenetti 2 integral format.
 Two-electron integral symmetry is turned on.
 R6Disp:  Grimme-D3(BJ) Dispersion energy=       -0.0122059506 Hartrees.
 Nuclear repulsion after empirical dispersion term =      211.7736376809 Hartrees.
 Leave Link  301 at Wed Dec 28 13:52:33 2022, MaxMem=  7516192768 cpu:               0.9 elap:               0.0
 (Enter /public/home/jackie_lijiaqi/g16/l302.exe)
 NPDir=0 NMtPBC=     1 NCelOv=     1 NCel=       1 NClECP=     1 NCelD=      1
         NCelK=      1 NCelE2=     1 NClLst=     1 CellRange=     0.0.
 One-electron integrals computed using PRISM.
 One-electron integral symmetry used in STVInt
 NBasis=    94 RedAO= T EigKep=  1.58D-03  NBF=    94
 NBsUse=    94 1.00D-06 EigRej= -1.00D+00 NBFU=    94
 Precomputing XC quadrature grid using
 IXCGrd= 4 IRadAn=           5 IRanWt=          -1 IRanGd=           0 AccXCQ= 0.00D+00.
 Generated NRdTot=       0 NPtTot=           0 NUsed=           0 NTot=          32
 NSgBfM=    94    94    94    94    94 MxSgAt=     8 MxSgA2=     8.
 Leave Link  302 at Wed Dec 28 13:52:34 2022, MaxMem=  7516192768 cpu:              10.8 elap:               0.5
 (Enter /public/home/jackie_lijiaqi/g16/l303.exe)
 DipDrv:  MaxL=1.
 Leave Link  303 at Wed Dec 28 13:52:34 2022, MaxMem=  7516192768 cpu:               0.9 elap:               0.1
 (Enter /public/home/jackie_lijiaqi/g16/l401.exe)
 Initial guess from the checkpoint file:  "/public/home/jackie_lijiaqi/g16/scratch/Gau-249605.chk"
 B after Tr=     0.000000    0.000000   -0.000000
         Rot=    1.000000    0.000001    0.000001    0.000122 Ang=   0.01 deg.
 Guess basis will be translated and rotated to current coordinates.
 JPrj=2 DoOrth=T DoCkMO=T.
 Generating alternative initial guess.
 ExpMin= 1.61D-01 ExpMax= 4.17D+03 ExpMxC= 6.27D+02 IAcc=3 IRadAn=         5 AccDes= 0.00D+00
 Harris functional with IExCor=  402 and IRadAn=       5 diagonalized for initial guess.
 HarFok:  IExCor=  402 AccDes= 0.00D+00 IRadAn=         5 IDoV= 1 UseB2=F ITyADJ=14
 ICtDFT=  3500011 ScaDFX=  1.000000  1.000000  1.000000  1.000000
 FoFCou: FMM=F IPFlag=           0 FMFlag=      100000 FMFlg1=           0
         NFxFlg=           0 DoJE=T BraDBF=F KetDBF=T FulRan=T
         wScrn=  0.000000 ICntrl=       500 IOpCl=  0 I1Cent=   200000004 NGrid=           0
         NMat0=    1 NMatS0=      1 NMatT0=    0 NMatD0=    1 NMtDS0=    0 NMtDT0=    0
 Petite list used in FoFCou.
 Harris En= -296.269815302498    
 Leave Link  401 at Wed Dec 28 13:52:35 2022, MaxMem=  7516192768 cpu:              18.7 elap:               0.8
 (Enter /public/home/jackie_lijiaqi/g16/l502.exe)
 Keep R1 ints in memory in canonical form, NReq=35682887.
 FoFCou: FMM=F IPFlag=           0 FMFlag=           0 FMFlg1=           0
         NFxFlg=           0 DoJE=F BraDBF=F KetDBF=F FulRan=T
         wScrn=  0.000000 ICntrl=       600 IOpCl=  0 I1Cent=           0 NGrid=           0
         NMat0=    1 NMatS0=   4465 NMatT0=    0 NMatD0=    1 NMtDS0=    0 NMtDT0=    0
 Symmetry not used in FoFCou.
 Two-electron integral symmetry not used.
 Closed shell SCF:
 Using DIIS extrapolation, IDIIS=  1040.
 NGot=  7516192768 LenX=  7506200851 LenY=  7506191574
 Requested convergence on RMS density matrix=1.00D-08 within 128 cycles.
 Requested convergence on MAX density matrix=1.00D-06.
 Requested convergence on             energy=1.00D-06.
 No special actions if energy rises.
 Integral accuracy reduced to 1.0D-05 until final iterations.

 Cycle   1  Pass 0  IDiag  1:
 E= -296.318561082857    
 DIIS: error= 8.08D-03 at cycle   1 NSaved=   1.
 NSaved= 1 IEnMin= 1 EnMin= -296.318561082857     IErMin= 1 ErrMin= 8.08D-03
 ErrMax= 8.08D-03  0.00D+00 EMaxC= 1.00D-01 BMatC= 5.07D-03 BMatP= 5.07D-03
 IDIUse=3 WtCom= 9.19D-01 WtEn= 8.08D-02
 Coeff-Com:  0.100D+01
 Coeff-En:   0.100D+01
 Coeff:      0.100D+01
 Gap=     1.439 Goal=   None    Shift=    0.000
 GapD=    1.439 DampG=2.000 DampE=1.000 DampFc=2.0000 IDamp=-1.
 RMSDP=1.75D-03 MaxDP=1.90D-02              OVMax= 7.17D-02

 Cycle   2  Pass 0  IDiag  1:
 E= -296.332163563250     Delta-E=       -0.013602480393 Rises=F Damp=F
 DIIS: error= 1.38D-03 at cycle   2 NSaved=   2.
 NSaved= 2 IEnMin= 2 EnMin= -296.332163563250     IErMin= 2 ErrMin= 1.38D-03
 ErrMax= 1.38D-03  0.00D+00 EMaxC= 1.00D-01 BMatC= 1.82D-04 BMatP= 5.07D-03
 IDIUse=3 WtCom= 9.86D-01 WtEn= 1.38D-02
 Coeff-Com: -0.618D-01 0.106D+01
 Coeff-En:   0.000D+00 0.100D+01
 Coeff:     -0.609D-01 0.106D+01
 Gap=     0.137 Goal=   None    Shift=    0.000
 RMSDP=4.49D-04 MaxDP=3.95D-03 DE=-1.36D-02 OVMax= 2.31D-02

 Cycle   3  Pass 0  IDiag  1:
 E= -296.332634530124     Delta-E=       -0.000470966874 Rises=F Damp=F
 DIIS: error= 8.28D-04 at cycle   3 NSaved=   3.
 NSaved= 3 IEnMin= 3 EnMin= -296.332634530124     IErMin= 3 ErrMin= 8.28D-04
 ErrMax= 8.28D-04  0.00D+00 EMaxC= 1.00D-01 BMatC= 5.13D-05 BMatP= 1.82D-04
 IDIUse=3 WtCom= 9.92D-01 WtEn= 8.28D-03
 Coeff-Com: -0.374D-01 0.335D+00 0.702D+00
 Coeff-En:   0.000D+00 0.000D+00 0.100D+01
 Coeff:     -0.371D-01 0.333D+00 0.704D+00
 Gap=     0.137 Goal=   None    Shift=    0.000
 RMSDP=1.35D-04 MaxDP=1.31D-03 DE=-4.71D-04 OVMax= 5.73D-03

 Cycle   4  Pass 0  IDiag  1:
 E= -296.332685021871     Delta-E=       -0.000050491747 Rises=F Damp=F
 DIIS: error= 5.30D-04 at cycle   4 NSaved=   4.
 NSaved= 4 IEnMin= 4 EnMin= -296.332685021871     IErMin= 4 ErrMin= 5.30D-04
 ErrMax= 5.30D-04  0.00D+00 EMaxC= 1.00D-01 BMatC= 2.06D-05 BMatP= 5.13D-05
 IDIUse=3 WtCom= 9.95D-01 WtEn= 5.30D-03
 Coeff-Com: -0.906D-02 0.364D-01 0.387D+00 0.586D+00
 Coeff-En:   0.000D+00 0.000D+00 0.546D-01 0.945D+00
 Coeff:     -0.902D-02 0.362D-01 0.385D+00 0.588D+00
 Gap=     0.137 Goal=   None    Shift=    0.000
 RMSDP=6.24D-05 MaxDP=7.41D-04 DE=-5.05D-05 OVMax= 3.21D-03

 Cycle   5  Pass 0  IDiag  1:
 E= -296.332706979658     Delta-E=       -0.000021957787 Rises=F Damp=F
 DIIS: error= 1.10D-04 at cycle   5 NSaved=   5.
 NSaved= 5 IEnMin= 5 EnMin= -296.332706979658     IErMin= 5 ErrMin= 1.10D-04
 ErrMax= 1.10D-04  0.00D+00 EMaxC= 1.00D-01 BMatC= 1.53D-06 BMatP= 2.06D-05
 IDIUse=3 WtCom= 9.99D-01 WtEn= 1.10D-03
 Coeff-Com:  0.238D-02-0.427D-01 0.471D-01 0.245D+00 0.748D+00
 Coeff-En:   0.000D+00 0.000D+00 0.000D+00 0.000D+00 0.100D+01
 Coeff:      0.238D-02-0.427D-01 0.470D-01 0.245D+00 0.748D+00
 Gap=     0.137 Goal=   None    Shift=    0.000
 RMSDP=3.19D-05 MaxDP=2.77D-04 DE=-2.20D-05 OVMax= 2.00D-03

 Cycle   6  Pass 0  IDiag  1:
 E= -296.332709772260     Delta-E=       -0.000002792601 Rises=F Damp=F
 DIIS: error= 4.19D-05 at cycle   6 NSaved=   6.
 NSaved= 6 IEnMin= 6 EnMin= -296.332709772260     IErMin= 6 ErrMin= 4.19D-05
 ErrMax= 4.19D-05  0.00D+00 EMaxC= 1.00D-01 BMatC= 1.38D-07 BMatP= 1.53D-06
 IDIUse=1 WtCom= 1.00D+00 WtEn= 0.00D+00
 Coeff-Com:  0.248D-02-0.277D-01-0.446D-01 0.612D-02 0.256D+00 0.808D+00
 Coeff:      0.248D-02-0.277D-01-0.446D-01 0.612D-02 0.256D+00 0.808D+00
 Gap=     0.137 Goal=   None    Shift=    0.000
 RMSDP=1.19D-05 MaxDP=1.06D-04 DE=-2.79D-06 OVMax= 7.96D-04

 Cycle   7  Pass 0  IDiag  1:
 E= -296.332710051006     Delta-E=       -0.000000278746 Rises=F Damp=F
 DIIS: error= 4.56D-06 at cycle   7 NSaved=   7.
 NSaved= 7 IEnMin= 7 EnMin= -296.332710051006     IErMin= 7 ErrMin= 4.56D-06
 ErrMax= 4.56D-06  0.00D+00 EMaxC= 1.00D-01 BMatC= 1.76D-09 BMatP= 1.38D-07
 IDIUse=1 WtCom= 1.00D+00 WtEn= 0.00D+00
 Coeff-Com:  0.657D-04 0.301D-03-0.260D-02-0.424D-02-0.937D-02-0.254D-02
 Coeff-Com:  0.102D+01
 Coeff:      0.657D-04 0.301D-03-0.260D-02-0.424D-02-0.937D-02-0.254D-02
 Coeff:      0.102D+01
 Gap=     0.137 Goal=   None    Shift=    0.000
 RMSDP=1.72D-06 MaxDP=2.15D-05 DE=-2.79D-07 OVMax= 9.00D-05

 Initial convergence to 1.0D-05 achieved.  Increase integral accuracy.
 Cycle   8  Pass 1  IDiag  1:
 E= -296.332709386354     Delta-E=        0.000000664652 Rises=F Damp=F
 DIIS: error= 1.14D-05 at cycle   1 NSaved=   1.
 NSaved= 1 IEnMin= 1 EnMin= -296.332709386354     IErMin= 1 ErrMin= 1.14D-05
 ErrMax= 1.14D-05  0.00D+00 EMaxC= 1.00D-01 BMatC= 7.94D-09 BMatP= 7.94D-09
 IDIUse=1 WtCom= 1.00D+00 WtEn= 0.00D+00
 Coeff-Com:  0.100D+01
 Coeff:      0.100D+01
 Gap=     0.137 Goal=   None    Shift=    0.000
 RMSDP=1.72D-06 MaxDP=2.15D-05 DE= 6.65D-07 OVMax= 1.12D-04

 Cycle   9  Pass 1  IDiag  1:
 E= -296.332709352468     Delta-E=        0.000000033886 Rises=F Damp=F
 DIIS: error= 2.80D-05 at cycle   2 NSaved=   2.
 NSaved= 2 IEnMin= 1 EnMin= -296.332709386354     IErMin= 1 ErrMin= 1.14D-05
 ErrMax= 2.80D-05  0.00D+00 EMaxC= 1.00D-01 BMatC= 4.17D-08 BMatP= 7.94D-09
 IDIUse=1 WtCom= 1.00D+00 WtEn= 0.00D+00
 Coeff-Com:  0.702D+00 0.298D+00
 Coeff:      0.702D+00 0.298D+00
 Gap=     0.137 Goal=   None    Shift=    0.000
 RMSDP=1.98D-06 MaxDP=3.48D-05 DE= 3.39D-08 OVMax= 8.22D-05

 Cycle  10  Pass 1  IDiag  1:
 E= -296.332709394654     Delta-E=       -0.000000042186 Rises=F Damp=F
 DIIS: error= 8.92D-07 at cycle   3 NSaved=   3.
 NSaved= 3 IEnMin= 3 EnMin= -296.332709394654     IErMin= 3 ErrMin= 8.92D-07
 ErrMax= 8.92D-07  0.00D+00 EMaxC= 1.00D-01 BMatC= 4.76D-11 BMatP= 7.94D-09
 IDIUse=1 WtCom= 1.00D+00 WtEn= 0.00D+00
 Coeff-Com: -0.402D-02 0.253D-01 0.979D+00
 Coeff:     -0.402D-02 0.253D-01 0.979D+00
 Gap=     0.137 Goal=   None    Shift=    0.000
 RMSDP=1.29D-07 MaxDP=2.46D-06 DE=-4.22D-08 OVMax= 5.28D-06

 Cycle  11  Pass 1  IDiag  1:
 E= -296.332709394645     Delta-E=        0.000000000009 Rises=F Damp=F
 DIIS: error= 1.09D-06 at cycle   4 NSaved=   4.
 NSaved= 4 IEnMin= 3 EnMin= -296.332709394654     IErMin= 3 ErrMin= 8.92D-07
 ErrMax= 1.09D-06  0.00D+00 EMaxC= 1.00D-01 BMatC= 6.33D-11 BMatP= 4.76D-11
 IDIUse=1 WtCom= 1.00D+00 WtEn= 0.00D+00
 Coeff-Com: -0.246D-01 0.828D-02 0.680D+00 0.337D+00
 Coeff:     -0.246D-01 0.828D-02 0.680D+00 0.337D+00
 Gap=     0.137 Goal=   None    Shift=    0.000
 RMSDP=7.37D-08 MaxDP=1.36D-06 DE= 8.53D-12 OVMax= 3.79D-06

 Cycle  12  Pass 1  IDiag  1:
 E= -296.332709394704     Delta-E=       -0.000000000059 Rises=F Damp=F
 DIIS: error= 4.58D-08 at cycle   5 NSaved=   5.
 NSaved= 5 IEnMin= 5 EnMin= -296.332709394704     IErMin= 5 ErrMin= 4.58D-08
 ErrMax= 4.58D-08  0.00D+00 EMaxC= 1.00D-01 BMatC= 2.38D-13 BMatP= 4.76D-11
 IDIUse=1 WtCom= 1.00D+00 WtEn= 0.00D+00
 Coeff-Com: -0.662D-02 0.130D-02 0.149D+00 0.100D+00 0.756D+00
 Coeff:     -0.662D-02 0.130D-02 0.149D+00 0.100D+00 0.756D+00
 Gap=     0.137 Goal=   None    Shift=    0.000
 RMSDP=8.95D-09 MaxDP=1.16D-07 DE=-5.87D-11 OVMax= 4.85D-07

 SCF Done:  E(RB3LYP) =  -296.332709395     A.U. after   12 cycles
            NFock= 12  Conv=0.89D-08     -V/T= 2.0093
 KE= 2.936065396350D+02 PE=-1.113112359554D+03 EE= 3.113994728435D+02
 Leave Link  502 at Wed Dec 28 13:52:37 2022, MaxMem=  7516192768 cpu:              55.1 elap:               2.3
 (Enter /public/home/jackie_lijiaqi/g16/l701.exe)
 ... and contract with generalized density number  0.
 Compute integral first derivatives.
 R6Disp: Adding Grimme-D3(BJ) dispersion energy 1st derivatives to the gradient.
 Leave Link  701 at Wed Dec 28 13:52:37 2022, MaxMem=  7516192768 cpu:               6.4 elap:               0.3
 (Enter /public/home/jackie_lijiaqi/g16/l702.exe)
 L702 exits ... SP integral derivatives will be done elsewhere.
 Leave Link  702 at Wed Dec 28 13:52:37 2022, MaxMem=  7516192768 cpu:               0.5 elap:               0.0
 (Enter /public/home/jackie_lijiaqi/g16/l703.exe)
 Integral derivatives from FoFJK, PRISM(SPDF).
 Compute integral first derivatives, UseDBF=F ICtDFT=           0.
 Calling FoFJK, ICntrl=      2127 FMM=F ISym2X=0 I1Cent= 0 IOpClX= 0 NMat=1 NMatS=1 NMatT=0.
 FoFJK:  IHMeth= 1 ICntrl=    2127 DoSepK=F KAlg= 0 I1Cent=           0 FoldK=F
 IRaf=         0 NMat=       1 IRICut=       1 DoRegI=T DoRafI=F ISym2E= 0 IDoP0=0 IntGTp=1.
 FoFCou: FMM=F IPFlag=           0 FMFlag=      100000 FMFlg1=         800
         NFxFlg=           0 DoJE=F BraDBF=F KetDBF=F FulRan=T
         wScrn=  0.000000 ICntrl=      2127 IOpCl=  0 I1Cent=           0 NGrid=           0
         NMat0=    1 NMatS0=      1 NMatT0=    0 NMatD0=    1 NMtDS0=    0 NMtDT0=    0
 Symmetry not used in FoFCou.
 Leave Link  703 at Wed Dec 28 13:52:38 2022, MaxMem=  7516192768 cpu:              16.2 elap:               0.7
 (Enter /public/home/jackie_lijiaqi/g16/l716.exe)
 Dipole        =-1.50294533D-06 2.22199458D-05 1.33742929D-01
 ***** Axes restored to original set *****
 -------------------------------------------------------------------
 Center     Atomic                   Forces (Hartrees/Bohr)
 Number     Number              X              Y              Z
 -------------------------------------------------------------------
      1        6           0.000002648   -0.001105431   -0.005184476
      2        7          -0.005130501    0.002186774    0.002311959
      3        7          -0.005149270   -0.002166043    0.002316688
      4        6           0.000013685    0.001111677   -0.005185369
      5        7           0.005127789   -0.002202473    0.002314390
      6        7           0.005132993    0.002179492    0.002313074
      7        1           0.000000449    0.000704805    0.000557469
      8        1           0.000002206   -0.000708801    0.000556264
 -------------------------------------------------------------------
 Cartesian Forces:  Max     0.005185369 RMS     0.002914166
 Leave Link  716 at Wed Dec 28 13:52:38 2022, MaxMem=  7516192768 cpu:               0.5 elap:               0.0
 (Enter /public/home/jackie_lijiaqi/g16/l103.exe)

 GradGradGradGradGradGradGradGradGradGradGradGradGradGradGradGradGradGrad
 Berny optimization.
 Using GEDIIS/GDIIS optimizer.
 FormGI is forming the generalized inverse of G from B-inverse, IUseBI=4.
 Internal  Forces:  Max     0.004634334 RMS     0.002308616
 Search for a local minimum.
 Step number   3 out of a maximum of   38
 All quantities printed in internal units (Hartrees-Bohrs-Radians)
 RMS Force = .23086D-02 SwitMx=.10000D-02 MixMth= 1
 Mixed Optimization -- RFO/linear search
 Update second derivatives using D2CorX and points    2    3
 DE= -2.63D-03 DEPred=-2.40D-03 R= 1.10D+00
 TightC=F SS=  1.41D+00  RLast= 4.57D-01 DXNew= 8.4853D-01 1.3705D+00
 Trust test= 1.10D+00 RLast= 4.57D-01 DXMaxT set to 8.49D-01
 ITU=  1  1  0
 Use linear search instead of GDIIS.
     Eigenvalues ---    0.01332   0.02687   0.02710   0.02724   0.04516
     Eigenvalues ---    0.15977   0.15983   0.23048   0.23566   0.24976
     Eigenvalues ---    0.36440   0.36527   0.54056   0.59072   0.61119
     Eigenvalues ---    0.64488   0.65304   0.67500
 RFO step:  Lambda=-1.09734804D-03 EMin= 1.33189312D-02
 Quartic linear search produced a step of  0.03568.
 Iteration  1 RMS(Cart)=  0.03550904 RMS(Int)=  0.00130573
 Iteration  2 RMS(Cart)=  0.00128528 RMS(Int)=  0.00073248
 Iteration  3 RMS(Cart)=  0.00000080 RMS(Int)=  0.00073248
 ITry= 1 IFail=0 DXMaxC= 8.62D-02 DCOld= 1.00D+10 DXMaxT= 8.49D-01 DXLimC= 3.00D+00 Rises=F
 Variable       Old X    -DE/DX   Delta X   Delta X   Delta X     New X
                                 (Linear)    (Quad)   (Total)
    R1        2.53888  -0.00462   0.00022  -0.00869  -0.00846   2.53042
    R2        2.53883  -0.00462   0.00022  -0.00867  -0.00845   2.53038
    R3        2.05317  -0.00068   0.00015  -0.00205  -0.00190   2.05127
    R4        2.51166  -0.00198   0.00074  -0.00129  -0.00055   2.51111
    R5        2.53890  -0.00463   0.00022  -0.00871  -0.00848   2.53042
    R6        2.53883  -0.00462   0.00022  -0.00866  -0.00844   2.53039
    R7        2.05318  -0.00069   0.00015  -0.00206  -0.00191   2.05127
    R8        2.51172  -0.00199   0.00073  -0.00131  -0.00057   2.51115
    A1        2.21465  -0.00281   0.00184  -0.00287  -0.00283   2.21182
    A2        2.03289   0.00149  -0.00095   0.00412   0.00279   2.03567
    A3        2.03291   0.00149  -0.00095   0.00410   0.00278   2.03568
    A4        2.03094   0.00151  -0.00050   0.00653   0.00461   2.03555
    A5        2.03092   0.00152  -0.00050   0.00656   0.00464   2.03556
    A6        2.21466  -0.00282   0.00184  -0.00289  -0.00284   2.21181
    A7        2.03291   0.00149  -0.00095   0.00410   0.00278   2.03568
    A8        2.03288   0.00150  -0.00095   0.00413   0.00280   2.03568
    A9        2.03093   0.00152  -0.00050   0.00655   0.00463   2.03555
   A10        2.03094   0.00151  -0.00050   0.00654   0.00462   2.03556
    D1        0.12910  -0.00224  -0.00501  -0.09882  -0.10384   0.02526
    D2       -3.09527   0.00049  -0.00617  -0.01801  -0.02419  -3.11946
    D3       -0.12912   0.00224   0.00502   0.09885   0.10388  -0.02524
    D4        3.09525  -0.00049   0.00618   0.01805   0.02422   3.11948
    D5        0.00003  -0.00000  -0.00000  -0.00004  -0.00005  -0.00002
    D6       -0.12914   0.00224   0.00502   0.09888   0.10391  -0.02523
    D7        3.09523  -0.00049   0.00618   0.01809   0.02426   3.11949
    D8        0.12912  -0.00224  -0.00501  -0.09884  -0.10387   0.02525
    D9       -3.09525   0.00049  -0.00617  -0.01805  -0.02422  -3.11947
   D10        0.00001  -0.00000  -0.00000  -0.00002  -0.00003  -0.00002
         Item               Value     Threshold  Converged?
 Maximum Force            0.004634     0.000450     NO 
 RMS     Force            0.002309     0.000300     NO 
 Maximum Displacement     0.086227     0.001800     NO 
 RMS     Displacement     0.035410     0.001200     NO 
 Predicted change in Energy=-5.810308D-04
 Lowest energy point so far.  Saving SCF results.
 GradGradGradGradGradGradGradGradGradGradGradGradGradGradGradGradGradGrad

 Leave Link  103 at Wed Dec 28 13:52:39 2022, MaxMem=  7516192768 cpu:              14.4 elap:               0.7
 (Enter /public/home/jackie_lijiaqi/g16/l202.exe)
                          Input orientation:                          
 ---------------------------------------------------------------------
 Center     Atomic      Atomic             Coordinates (Angstroms)
 Number     Number       Type             X           Y           Z
 ---------------------------------------------------------------------
      1          6           0       -0.002041   -1.264575    0.098813
      2          7           0        1.195863   -0.666355    0.085249
      3          7           0        1.198016    0.662467    0.085249
      4          6           0        0.002064    1.264583    0.098787
      5          7           0       -1.195825    0.666365    0.085248
      6          7           0       -1.197980   -0.662476    0.085272
      7          1           0       -0.003797   -2.349847    0.120292
      8          1           0        0.003828    2.349857    0.120232
 ---------------------------------------------------------------------
                    Distance matrix (angstroms):
                    1          2          3          4          5
     1  C    0.000000
     2  N    1.339039   0.000000
     3  N    2.270201   1.328824   0.000000
     4  C    2.529161   2.270212   1.339040   0.000000
     5  N    2.270206   2.737940   2.393845   1.339025   0.000000
     6  N    1.339021   2.393847   2.737932   2.270209   1.328843
     7  H    1.085487   2.067501   3.243397   3.614500   3.243409
     8  H    3.614500   3.243410   2.067509   1.085487   2.067496
                    6          7          8
     6  N    0.000000
     7  H    2.067492   0.000000
     8  H    3.243411   4.699711   0.000000
 Stoichiometry    C2H2N4
 Framework group  C1[X(C2H2N4)]
 Deg. of freedom    18
 Full point group                 C1      NOp   1
 RotChk:  IX=0 Diff= 4.59D-05
 Largest Abelian subgroup         C1      NOp   1
 Largest concise Abelian subgroup C1      NOp   1
                         Standard orientation:                         
 ---------------------------------------------------------------------
 Center     Atomic      Atomic             Coordinates (Angstroms)
 Number     Number       Type             X           Y           Z
 ---------------------------------------------------------------------
      1          6           0        1.264578   -0.000048    0.008021
      2          7           0        0.664455    1.196904   -0.005543
      3          7           0       -0.664368    1.196945   -0.005543
      4          6           0       -1.264583    0.000038    0.007996
      5          7           0       -0.664462   -1.196899   -0.005544
      6          7           0        0.664381   -1.196942   -0.005519
      7          1           0        2.349852   -0.000079    0.029501
      8          1           0       -2.349859    0.000078    0.029440
 ---------------------------------------------------------------------
 Rotational constants (GHZ):           6.8072246           6.2975936           3.2714601
 Leave Link  202 at Wed Dec 28 13:52:39 2022, MaxMem=  7516192768 cpu:               1.0 elap:               0.1
 (Enter /public/home/jackie_lijiaqi/g16/l301.exe)
 Standard basis: 6-31G(d) (6D, 7F)
 Ernie: Thresh=  0.10000D-02 Tol=  0.10000D-05 Strict=F.
 There are    94 symmetry adapted cartesian basis functions of A   symmetry.
 There are    94 symmetry adapted basis functions of A   symmetry.
    94 basis functions,   176 primitive gaussians,    94 cartesian basis functions
    21 alpha electrons       21 beta electrons
       nuclear repulsion energy       212.1704231797 Hartrees.
 IExCor=  402 DFT=T Ex+Corr=B3LYP ExCW=0 ScaHFX=  0.200000
 ScaDFX=  0.800000  0.720000  1.000000  0.810000 ScalE2=  1.000000  1.000000
 IRadAn=      5 IRanWt=     -1 IRanGd=            0 ICorTp=0 IEmpDi=141
 NAtoms=    8 NActive=    8 NUniq=    8 SFac= 1.00D+00 NAtFMM=   60 NAOKFM=F Big=F
 Integral buffers will be    131072 words long.
 Raffenetti 2 integral format.
 Two-electron integral symmetry is turned on.
 R6Disp:  Grimme-D3(BJ) Dispersion energy=       -0.0122106850 Hartrees.
 Nuclear repulsion after empirical dispersion term =      212.1582124947 Hartrees.
 Leave Link  301 at Wed Dec 28 13:52:39 2022, MaxMem=  7516192768 cpu:               1.0 elap:               0.1
 (Enter /public/home/jackie_lijiaqi/g16/l302.exe)
 NPDir=0 NMtPBC=     1 NCelOv=     1 NCel=       1 NClECP=     1 NCelD=      1
         NCelK=      1 NCelE2=     1 NClLst=     1 CellRange=     0.0.
 One-electron integrals computed using PRISM.
 One-electron integral symmetry used in STVInt
 NBasis=    94 RedAO= T EigKep=  1.55D-03  NBF=    94
 NBsUse=    94 1.00D-06 EigRej= -1.00D+00 NBFU=    94
 Precomputing XC quadrature grid using
 IXCGrd= 4 IRadAn=           5 IRanWt=          -1 IRanGd=           0 AccXCQ= 0.00D+00.
 Generated NRdTot=       0 NPtTot=           0 NUsed=           0 NTot=          32
 NSgBfM=    94    94    94    94    94 MxSgAt=     8 MxSgA2=     8.
 Leave Link  302 at Wed Dec 28 13:52:39 2022, MaxMem=  7516192768 cpu:              10.8 elap:               0.5
 (Enter /public/home/jackie_lijiaqi/g16/l303.exe)
 DipDrv:  MaxL=1.
 Leave Link  303 at Wed Dec 28 13:52:39 2022, MaxMem=  7516192768 cpu:               0.9 elap:               0.0
 (Enter /public/home/jackie_lijiaqi/g16/l401.exe)
 Initial guess from the checkpoint file:  "/public/home/jackie_lijiaqi/g16/scratch/Gau-249605.chk"
 B after Tr=    -0.000000    0.000000    0.000000
         Rot=    1.000000   -0.000000   -0.000002   -0.000017 Ang=  -0.00 deg.
 Guess basis will be translated and rotated to current coordinates.
 JPrj=2 DoOrth=T DoCkMO=T.
 Generating alternative initial guess.
 ExpMin= 1.61D-01 ExpMax= 4.17D+03 ExpMxC= 6.27D+02 IAcc=3 IRadAn=         5 AccDes= 0.00D+00
 Harris functional with IExCor=  402 and IRadAn=       5 diagonalized for initial guess.
 HarFok:  IExCor=  402 AccDes= 0.00D+00 IRadAn=         5 IDoV= 1 UseB2=F ITyADJ=14
 ICtDFT=  3500011 ScaDFX=  1.000000  1.000000  1.000000  1.000000
 FoFCou: FMM=F IPFlag=           0 FMFlag=      100000 FMFlg1=           0
         NFxFlg=           0 DoJE=T BraDBF=F KetDBF=T FulRan=T
         wScrn=  0.000000 ICntrl=       500 IOpCl=  0 I1Cent=   200000004 NGrid=           0
         NMat0=    1 NMatS0=      1 NMatT0=    0 NMatD0=    1 NMtDS0=    0 NMtDT0=    0
 Petite list used in FoFCou.
 Harris En= -296.270778478939    
 Leave Link  401 at Wed Dec 28 13:52:40 2022, MaxMem=  7516192768 cpu:              15.9 elap:               0.7
 (Enter /public/home/jackie_lijiaqi/g16/l502.exe)
 Keep R1 ints in memory in canonical form, NReq=35682887.
 FoFCou: FMM=F IPFlag=           0 FMFlag=           0 FMFlg1=           0
         NFxFlg=           0 DoJE=F BraDBF=F KetDBF=F FulRan=T
         wScrn=  0.000000 ICntrl=       600 IOpCl=  0 I1Cent=           0 NGrid=           0
         NMat0=    1 NMatS0=   4465 NMatT0=    0 NMatD0=    1 NMtDS0=    0 NMtDT0=    0
 Symmetry not used in FoFCou.
 Two-electron integral symmetry not used.
 Closed shell SCF:
 Using DIIS extrapolation, IDIIS=  1040.
 NGot=  7516192768 LenX=  7506200851 LenY=  7506191574
 Requested convergence on RMS density matrix=1.00D-08 within 128 cycles.
 Requested convergence on MAX density matrix=1.00D-06.
 Requested convergence on             energy=1.00D-06.
 No special actions if energy rises.
 Integral accuracy reduced to 1.0D-05 until final iterations.

 Cycle   1  Pass 0  IDiag  1:
 E= -296.329174291636    
 DIIS: error= 5.21D-03 at cycle   1 NSaved=   1.
 NSaved= 1 IEnMin= 1 EnMin= -296.329174291636     IErMin= 1 ErrMin= 5.21D-03
 ErrMax= 5.21D-03  0.00D+00 EMaxC= 1.00D-01 BMatC= 1.57D-03 BMatP= 1.57D-03
 IDIUse=3 WtCom= 9.48D-01 WtEn= 5.21D-02
 Coeff-Com:  0.100D+01
 Coeff-En:   0.100D+01
 Coeff:      0.100D+01
 Gap=     1.458 Goal=   None    Shift=    0.000
 GapD=    1.458 DampG=2.000 DampE=1.000 DampFc=2.0000 IDamp=-1.
 RMSDP=9.64D-04 MaxDP=9.03D-03              OVMax= 4.70D-02

 Cycle   2  Pass 0  IDiag  1:
 E= -296.333138060668     Delta-E=       -0.003963769032 Rises=F Damp=F
 DIIS: error= 8.64D-04 at cycle   2 NSaved=   2.
 NSaved= 2 IEnMin= 2 EnMin= -296.333138060668     IErMin= 2 ErrMin= 8.64D-04
 ErrMax= 8.64D-04  0.00D+00 EMaxC= 1.00D-01 BMatC= 6.15D-05 BMatP= 1.57D-03
 IDIUse=3 WtCom= 9.91D-01 WtEn= 8.64D-03
 Coeff-Com: -0.809D-01 0.108D+01
 Coeff-En:   0.000D+00 0.100D+01
 Coeff:     -0.802D-01 0.108D+01
 Gap=     0.135 Goal=   None    Shift=    0.000
 RMSDP=2.20D-04 MaxDP=1.82D-03 DE=-3.96D-03 OVMax= 1.36D-02

 Cycle   3  Pass 0  IDiag  1:
 E= -296.333287918301     Delta-E=       -0.000149857634 Rises=F Damp=F
 DIIS: error= 3.88D-04 at cycle   3 NSaved=   3.
 NSaved= 3 IEnMin= 3 EnMin= -296.333287918301     IErMin= 3 ErrMin= 3.88D-04
 ErrMax= 3.88D-04  0.00D+00 EMaxC= 1.00D-01 BMatC= 1.38D-05 BMatP= 6.15D-05
 IDIUse=3 WtCom= 9.96D-01 WtEn= 3.88D-03
 Coeff-Com: -0.374D-01 0.332D+00 0.706D+00
 Coeff-En:   0.000D+00 0.000D+00 0.100D+01
 Coeff:     -0.372D-01 0.330D+00 0.707D+00
 Gap=     0.135 Goal=   None    Shift=    0.000
 RMSDP=8.39D-05 MaxDP=7.71D-04 DE=-1.50D-04 OVMax= 4.83D-03

 Cycle   4  Pass 0  IDiag  1:
 E= -296.333306610513     Delta-E=       -0.000018692211 Rises=F Damp=F
 DIIS: error= 2.42D-04 at cycle   4 NSaved=   4.
 NSaved= 4 IEnMin= 4 EnMin= -296.333306610513     IErMin= 4 ErrMin= 2.42D-04
 ErrMax= 2.42D-04  0.00D+00 EMaxC= 1.00D-01 BMatC= 5.20D-06 BMatP= 1.38D-05
 IDIUse=3 WtCom= 9.98D-01 WtEn= 2.42D-03
 Coeff-Com: -0.362D-02 0.358D-02 0.373D+00 0.627D+00
 Coeff-En:   0.000D+00 0.000D+00 0.000D+00 0.100D+01
 Coeff:     -0.361D-02 0.358D-02 0.372D+00 0.628D+00
 Gap=     0.135 Goal=   None    Shift=    0.000
 RMSDP=3.44D-05 MaxDP=3.63D-04 DE=-1.87D-05 OVMax= 2.00D-03

 Cycle   5  Pass 0  IDiag  1:
 E= -296.333312449703     Delta-E=       -0.000005839190 Rises=F Damp=F
 DIIS: error= 9.37D-05 at cycle   5 NSaved=   5.
 NSaved= 5 IEnMin= 5 EnMin= -296.333312449703     IErMin= 5 ErrMin= 9.37D-05
 ErrMax= 9.37D-05  0.00D+00 EMaxC= 1.00D-01 BMatC= 7.68D-07 BMatP= 5.20D-06
 IDIUse=1 WtCom= 1.00D+00 WtEn= 0.00D+00
 Coeff-Com:  0.656D-02-0.859D-01 0.952D-01 0.342D+00 0.642D+00
 Coeff:      0.656D-02-0.859D-01 0.952D-01 0.342D+00 0.642D+00
 Gap=     0.135 Goal=   None    Shift=    0.000
 RMSDP=1.66D-05 MaxDP=1.38D-04 DE=-5.84D-06 OVMax= 1.06D-03

 Cycle   6  Pass 0  IDiag  1:
 E= -296.333313525557     Delta-E=       -0.000001075854 Rises=F Damp=F
 DIIS: error= 1.55D-05 at cycle   6 NSaved=   6.
 NSaved= 6 IEnMin= 6 EnMin= -296.333313525557     IErMin= 6 ErrMin= 1.55D-05
 ErrMax= 1.55D-05  0.00D+00 EMaxC= 1.00D-01 BMatC= 1.91D-08 BMatP= 7.68D-07
 IDIUse=1 WtCom= 1.00D+00 WtEn= 0.00D+00
 Coeff-Com:  0.220D-02-0.280D-01-0.108D-01 0.113D-01 0.918D-01 0.934D+00
 Coeff:      0.220D-02-0.280D-01-0.108D-01 0.113D-01 0.918D-01 0.934D+00
 Gap=     0.135 Goal=   None    Shift=    0.000
 RMSDP=6.73D-06 MaxDP=6.42D-05 DE=-1.08D-06 OVMax= 4.58D-04

 Initial convergence to 1.0D-05 achieved.  Increase integral accuracy.
 Cycle   7  Pass 1  IDiag  1:
 E= -296.333312737382     Delta-E=        0.000000788175 Rises=F Damp=F
 DIIS: error= 4.32D-06 at cycle   1 NSaved=   1.
 NSaved= 1 IEnMin= 1 EnMin= -296.333312737382     IErMin= 1 ErrMin= 4.32D-06
 ErrMax= 4.32D-06  0.00D+00 EMaxC= 1.00D-01 BMatC= 1.65D-09 BMatP= 1.65D-09
 IDIUse=1 WtCom= 1.00D+00 WtEn= 0.00D+00
 Coeff-Com:  0.100D+01
 Coeff:      0.100D+01
 Gap=     0.135 Goal=   None    Shift=    0.000
 RMSDP=6.73D-06 MaxDP=6.42D-05 DE= 7.88D-07 OVMax= 4.10D-05

 Cycle   8  Pass 1  IDiag  1:
 E= -296.333312735648     Delta-E=        0.000000001734 Rises=F Damp=F
 DIIS: error= 8.97D-06 at cycle   2 NSaved=   2.
 NSaved= 2 IEnMin= 1 EnMin= -296.333312737382     IErMin= 1 ErrMin= 4.32D-06
 ErrMax= 8.97D-06  0.00D+00 EMaxC= 1.00D-01 BMatC= 3.76D-09 BMatP= 1.65D-09
 IDIUse=1 WtCom= 1.00D+00 WtEn= 0.00D+00
 Coeff-Com:  0.623D+00 0.377D+00
 Coeff:      0.623D+00 0.377D+00
 Gap=     0.135 Goal=   None    Shift=    0.000
 RMSDP=7.47D-07 MaxDP=1.15D-05 DE= 1.73D-09 OVMax= 3.71D-05

 Cycle   9  Pass 1  IDiag  1:
 E= -296.333312739145     Delta-E=       -0.000000003497 Rises=F Damp=F
 DIIS: error= 2.61D-06 at cycle   3 NSaved=   3.
 NSaved= 3 IEnMin= 3 EnMin= -296.333312739145     IErMin= 3 ErrMin= 2.61D-06
 ErrMax= 2.61D-06  0.00D+00 EMaxC= 1.00D-01 BMatC= 3.18D-10 BMatP= 1.65D-09
 IDIUse=1 WtCom= 1.00D+00 WtEn= 0.00D+00
 Coeff-Com:  0.133D-01 0.223D+00 0.764D+00
 Coeff:      0.133D-01 0.223D+00 0.764D+00
 Gap=     0.135 Goal=   None    Shift=    0.000
 RMSDP=2.05D-07 MaxDP=2.83D-06 DE=-3.50D-09 OVMax= 8.81D-06

 Cycle  10  Pass 1  IDiag  1:
 E= -296.333312739469     Delta-E=       -0.000000000323 Rises=F Damp=F
 DIIS: error= 3.71D-07 at cycle   4 NSaved=   4.
 NSaved= 4 IEnMin= 4 EnMin= -296.333312739469     IErMin= 4 ErrMin= 3.71D-07
 ErrMax= 3.71D-07  0.00D+00 EMaxC= 1.00D-01 BMatC= 1.42D-11 BMatP= 3.18D-10
 IDIUse=1 WtCom= 1.00D+00 WtEn= 0.00D+00
 Coeff-Com: -0.193D-01 0.997D-01 0.390D+00 0.529D+00
 Coeff:     -0.193D-01 0.997D-01 0.390D+00 0.529D+00
 Gap=     0.135 Goal=   None    Shift=    0.000
 RMSDP=3.81D-08 MaxDP=7.05D-07 DE=-3.23D-10 OVMax= 9.68D-07

 Cycle  11  Pass 1  IDiag  1:
 E= -296.333312739480     Delta-E=       -0.000000000011 Rises=F Damp=F
 DIIS: error= 8.27D-08 at cycle   5 NSaved=   5.
 NSaved= 5 IEnMin= 5 EnMin= -296.333312739480     IErMin= 5 ErrMin= 8.27D-08
 ErrMax= 8.27D-08  0.00D+00 EMaxC= 1.00D-01 BMatC= 1.16D-12 BMatP= 1.42D-11
 IDIUse=1 WtCom= 1.00D+00 WtEn= 0.00D+00
 Coeff-Com: -0.121D-01 0.384D-01 0.158D+00 0.256D+00 0.560D+00
 Coeff:     -0.121D-01 0.384D-01 0.158D+00 0.256D+00 0.560D+00
 Gap=     0.135 Goal=   None    Shift=    0.000
 RMSDP=1.39D-08 MaxDP=2.49D-07 DE=-1.13D-11 OVMax= 5.99D-07

 Cycle  12  Pass 1  IDiag  1:
 E= -296.333312739481     Delta-E=       -0.000000000001 Rises=F Damp=F
 DIIS: error= 4.04D-08 at cycle   6 NSaved=   6.
 NSaved= 6 IEnMin= 6 EnMin= -296.333312739481     IErMin= 6 ErrMin= 4.04D-08
 ErrMax= 4.04D-08  0.00D+00 EMaxC= 1.00D-01 BMatC= 1.88D-13 BMatP= 1.16D-12
 IDIUse=1 WtCom= 1.00D+00 WtEn= 0.00D+00
 Coeff-Com:  0.624D-03-0.777D-02-0.306D-01-0.672D-01 0.239D+00 0.866D+00
 Coeff:      0.624D-03-0.777D-02-0.306D-01-0.672D-01 0.239D+00 0.866D+00
 Gap=     0.135 Goal=   None    Shift=    0.000
 RMSDP=1.15D-08 MaxDP=1.04D-07 DE=-1.08D-12 OVMax= 7.60D-07

 Cycle  13  Pass 1  IDiag  1:
 E= -296.333312739481     Delta-E=       -0.000000000000 Rises=F Damp=F
 DIIS: error= 2.04D-08 at cycle   7 NSaved=   7.
 NSaved= 7 IEnMin= 7 EnMin= -296.333312739481     IErMin= 7 ErrMin= 2.04D-08
 ErrMax= 2.04D-08  0.00D+00 EMaxC= 1.00D-01 BMatC= 5.74D-14 BMatP= 1.88D-13
 IDIUse=1 WtCom= 1.00D+00 WtEn= 0.00D+00
 Coeff-Com:  0.141D-02-0.775D-02-0.314D-01-0.682D-01 0.974D-01 0.550D+00
 Coeff-Com:  0.458D+00
 Coeff:      0.141D-02-0.775D-02-0.314D-01-0.682D-01 0.974D-01 0.550D+00
 Coeff:      0.458D+00
 Gap=     0.135 Goal=   None    Shift=    0.000
 RMSDP=2.93D-09 MaxDP=5.34D-08 DE=-1.71D-13 OVMax= 1.39D-07

 SCF Done:  E(RB3LYP) =  -296.333312739     A.U. after   13 cycles
            NFock= 13  Conv=0.29D-08     -V/T= 2.0091
 KE= 2.936509436459D+02 PE=-1.113913844337D+03 EE= 3.117713754565D+02
 Leave Link  502 at Wed Dec 28 13:52:42 2022, MaxMem=  7516192768 cpu:              54.4 elap:               2.3
 (Enter /public/home/jackie_lijiaqi/g16/l701.exe)
 ... and contract with generalized density number  0.
 Compute integral first derivatives.
 R6Disp: Adding Grimme-D3(BJ) dispersion energy 1st derivatives to the gradient.
 Leave Link  701 at Wed Dec 28 13:52:43 2022, MaxMem=  7516192768 cpu:               7.2 elap:               0.3
 (Enter /public/home/jackie_lijiaqi/g16/l702.exe)
 L702 exits ... SP integral derivatives will be done elsewhere.
 Leave Link  702 at Wed Dec 28 13:52:43 2022, MaxMem=  7516192768 cpu:               0.5 elap:               0.0
 (Enter /public/home/jackie_lijiaqi/g16/l703.exe)
 Integral derivatives from FoFJK, PRISM(SPDF).
 Compute integral first derivatives, UseDBF=F ICtDFT=           0.
 Calling FoFJK, ICntrl=      2127 FMM=F ISym2X=0 I1Cent= 0 IOpClX= 0 NMat=1 NMatS=1 NMatT=0.
 FoFJK:  IHMeth= 1 ICntrl=    2127 DoSepK=F KAlg= 0 I1Cent=           0 FoldK=F
 IRaf=         0 NMat=       1 IRICut=       1 DoRegI=T DoRafI=F ISym2E= 0 IDoP0=0 IntGTp=1.
 FoFCou: FMM=F IPFlag=           0 FMFlag=      100000 FMFlg1=         800
         NFxFlg=           0 DoJE=F BraDBF=F KetDBF=F FulRan=T
         wScrn=  0.000000 ICntrl=      2127 IOpCl=  0 I1Cent=           0 NGrid=           0
         NMat0=    1 NMatS0=      1 NMatT0=    0 NMatD0=    1 NMtDS0=    0 NMtDT0=    0
 Symmetry not used in FoFCou.
 Leave Link  703 at Wed Dec 28 13:52:44 2022, MaxMem=  7516192768 cpu:              18.4 elap:               0.8
 (Enter /public/home/jackie_lijiaqi/g16/l716.exe)
 Dipole        =-7.06756586D-06 1.36583846D-05 3.11891272D-02
 ***** Axes restored to original set *****
 -------------------------------------------------------------------
 Center     Atomic                   Forces (Hartrees/Bohr)
 Number     Number              X              Y              Z
 -------------------------------------------------------------------
      1        6           0.000004531   -0.000668973    0.000150661
      2        7          -0.000272633    0.002919860    0.000156327
      3        7          -0.000278554   -0.002914685    0.000154090
      4        6           0.000004088    0.000663034    0.000149987
      5        7           0.000267182   -0.002925531    0.000155481
      6        7           0.000274892    0.002927125    0.000154820
      7        1          -0.000000311   -0.000090474   -0.000461075
      8        1           0.000000806    0.000089643   -0.000460291
 -------------------------------------------------------------------
 Cartesian Forces:  Max     0.002927125 RMS     0.001223315
 Leave Link  716 at Wed Dec 28 13:52:44 2022, MaxMem=  7516192768 cpu:               0.6 elap:               0.0
 (Enter /public/home/jackie_lijiaqi/g16/l103.exe)

 GradGradGradGradGradGradGradGradGradGradGradGradGradGradGradGradGradGrad
 Berny optimization.
 Using GEDIIS/GDIIS optimizer.
 FormGI is forming the generalized inverse of G from B-inverse, IUseBI=4.
 Internal  Forces:  Max     0.002546958 RMS     0.000735782
 Search for a local minimum.
 Step number   4 out of a maximum of   38
 All quantities printed in internal units (Hartrees-Bohrs-Radians)
 RMS Force = .73578D-03 SwitMx=.10000D-02 MixMth= 2
 Mixed Optimization -- En-DIIS/RFO-DIIS
 Update second derivatives using D2CorX and points    3    4
 DE= -6.03D-04 DEPred=-5.81D-04 R= 1.04D+00
 TightC=F SS=  1.41D+00  RLast= 2.14D-01 DXNew= 1.4270D+00 6.4296D-01
 Trust test= 1.04D+00 RLast= 2.14D-01 DXMaxT set to 8.49D-01
 ITU=  1  1  1  0
 Use linear search instead of GDIIS.
     Eigenvalues ---    0.01193   0.02687   0.02696   0.02708   0.04979
     Eigenvalues ---    0.16000   0.16000   0.21806   0.23625   0.24999
     Eigenvalues ---    0.36440   0.36548   0.54107   0.59046   0.61149
     Eigenvalues ---    0.64488   0.65317   0.67629
 RFO step:  Lambda=-5.69206088D-05 EMin= 1.19308981D-02
 Quartic linear search produced a step of  0.13959.
 Iteration  1 RMS(Cart)=  0.01324996 RMS(Int)=  0.00016635
 Iteration  2 RMS(Cart)=  0.00014676 RMS(Int)=  0.00012513
 Iteration  3 RMS(Cart)=  0.00000000 RMS(Int)=  0.00012513
 ITry= 1 IFail=0 DXMaxC= 3.96D-02 DCOld= 1.00D+10 DXMaxT= 8.49D-01 DXLimC= 3.00D+00 Rises=F
 Variable       Old X    -DE/DX   Delta X   Delta X   Delta X     New X
                                 (Linear)    (Quad)   (Total)
    R1        2.53042  -0.00008  -0.00118   0.00078  -0.00041   2.53001
    R2        2.53038  -0.00007  -0.00118   0.00079  -0.00039   2.52999
    R3        2.05127   0.00008  -0.00026   0.00059   0.00033   2.05160
    R4        2.51111  -0.00254  -0.00008  -0.00352  -0.00360   2.50751
    R5        2.53042  -0.00008  -0.00118   0.00077  -0.00041   2.53001
    R6        2.53039  -0.00008  -0.00118   0.00078  -0.00040   2.52999
    R7        2.05127   0.00008  -0.00027   0.00059   0.00033   2.05160
    R8        2.51115  -0.00255  -0.00008  -0.00353  -0.00361   2.50754
    A1        2.21182  -0.00058  -0.00039  -0.00153  -0.00221   2.20961
    A2        2.03567   0.00029   0.00039   0.00075   0.00111   2.03678
    A3        2.03568   0.00029   0.00039   0.00075   0.00111   2.03679
    A4        2.03555   0.00029   0.00064   0.00085   0.00124   2.03679
    A5        2.03556   0.00029   0.00065   0.00083   0.00122   2.03678
    A6        2.21181  -0.00058  -0.00040  -0.00151  -0.00220   2.20962
    A7        2.03568   0.00029   0.00039   0.00074   0.00110   2.03678
    A8        2.03568   0.00029   0.00039   0.00075   0.00110   2.03679
    A9        2.03555   0.00029   0.00065   0.00084   0.00123   2.03678
   A10        2.03556   0.00029   0.00064   0.00084   0.00123   2.03679
    D1        0.02526  -0.00016  -0.01450  -0.00808  -0.02257   0.00269
    D2       -3.11946  -0.00042  -0.00338  -0.01715  -0.02052  -3.13998
    D3       -0.02524   0.00016   0.01450   0.00806   0.02256  -0.00268
    D4        3.11948   0.00042   0.00338   0.01713   0.02051   3.13999
    D5       -0.00002   0.00000  -0.00001   0.00002   0.00001  -0.00001
    D6       -0.02523   0.00016   0.01450   0.00805   0.02256  -0.00268
    D7        3.11949   0.00042   0.00339   0.01709   0.02048   3.13997
    D8        0.02525  -0.00016  -0.01450  -0.00807  -0.02257   0.00269
    D9       -3.11947  -0.00042  -0.00338  -0.01711  -0.02049  -3.13996
   D10       -0.00002   0.00000  -0.00000   0.00001   0.00001  -0.00001
         Item               Value     Threshold  Converged?
 Maximum Force            0.002547     0.000450     NO 
 RMS     Force            0.000736     0.000300     NO 
 Maximum Displacement     0.039640     0.001800     NO 
 RMS     Displacement     0.013249     0.001200     NO 
 Predicted change in Energy=-3.534046D-05
 Lowest energy point so far.  Saving SCF results.
 GradGradGradGradGradGradGradGradGradGradGradGradGradGradGradGradGradGrad

 Leave Link  103 at Wed Dec 28 13:52:44 2022, MaxMem=  7516192768 cpu:               0.8 elap:               0.0
 (Enter /public/home/jackie_lijiaqi/g16/l202.exe)
                          Input orientation:                          
 ---------------------------------------------------------------------
 Center     Atomic      Atomic             Coordinates (Angstroms)
 Number     Number       Type             X           Y           Z
 ---------------------------------------------------------------------
      1          6           0       -0.002041   -1.264997    0.097739
      2          7           0        1.195008   -0.665396    0.096281
      3          7           0        1.197163    0.661522    0.096268
      4          6           0        0.002067    1.265002    0.097703
      5          7           0       -1.194976    0.665408    0.096273
      6          7           0       -1.197128   -0.661521    0.096298
      7          1           0       -0.003798   -2.350656    0.099316
      8          1           0        0.003833    2.350660    0.099265
 ---------------------------------------------------------------------
                    Distance matrix (angstroms):
                    1          2          3          4          5
     1  C    0.000000
     2  N    1.338825   0.000000
     3  N    2.269266   1.326919   0.000000
     4  C    2.530003   2.269262   1.338822   0.000000
     5  N    2.269264   2.735519   2.392142   1.338815   0.000000
     6  N    1.338813   2.392140   2.735520   2.269264   1.326931
     7  H    1.085661   2.068151   3.242766   3.615663   3.242770
     8  H    3.615662   3.242761   2.068147   1.085660   2.068145
                    6          7          8
     6  N    0.000000
     7  H    2.068145   0.000000
     8  H    3.242769   4.701322   0.000000
 Stoichiometry    C2H2N4
 Framework group  C1[X(C2H2N4)]
 Deg. of freedom    18
 Full point group                 C1      NOp   1
 RotChk:  IX=0 Diff= 7.18D-05
 Largest Abelian subgroup         C1      NOp   1
 Largest concise Abelian subgroup C1      NOp   1
                         Standard orientation:                         
 ---------------------------------------------------------------------
 Center     Atomic      Atomic             Coordinates (Angstroms)
 Number     Number       Type             X           Y           Z
 ---------------------------------------------------------------------
      1          6           0        1.265002    0.000018    0.000904
      2          7           0        0.663438    1.196082   -0.000554
      3          7           0       -0.663481    1.196061   -0.000567
      4          6           0       -1.265001   -0.000024    0.000868
      5          7           0       -0.663444   -1.196081   -0.000562
      6          7           0        0.663486   -1.196057   -0.000537
      7          1           0        2.350662    0.000041    0.002481
      8          1           0       -2.350660   -0.000037    0.002430
 ---------------------------------------------------------------------
 Rotational constants (GHZ):           6.8111432           6.3069610           3.2746836
 Leave Link  202 at Wed Dec 28 13:52:44 2022, MaxMem=  7516192768 cpu:               0.6 elap:               0.0
 (Enter /public/home/jackie_lijiaqi/g16/l301.exe)
 Standard basis: 6-31G(d) (6D, 7F)
 Ernie: Thresh=  0.10000D-02 Tol=  0.10000D-05 Strict=F.
 There are    94 symmetry adapted cartesian basis functions of A   symmetry.
 There are    94 symmetry adapted basis functions of A   symmetry.
    94 basis functions,   176 primitive gaussians,    94 cartesian basis functions
    21 alpha electrons       21 beta electrons
       nuclear repulsion energy       212.2801497389 Hartrees.
 IExCor=  402 DFT=T Ex+Corr=B3LYP ExCW=0 ScaHFX=  0.200000
 ScaDFX=  0.800000  0.720000  1.000000  0.810000 ScalE2=  1.000000  1.000000
 IRadAn=      5 IRanWt=     -1 IRanGd=            0 ICorTp=0 IEmpDi=141
 NAtoms=    8 NActive=    8 NUniq=    8 SFac= 1.00D+00 NAtFMM=   60 NAOKFM=F Big=F
 Integral buffers will be    131072 words long.
 Raffenetti 2 integral format.
 Two-electron integral symmetry is turned on.
 R6Disp:  Grimme-D3(BJ) Dispersion energy=       -0.0122114859 Hartrees.
 Nuclear repulsion after empirical dispersion term =      212.2679382530 Hartrees.
 Leave Link  301 at Wed Dec 28 13:52:44 2022, MaxMem=  7516192768 cpu:               1.0 elap:               0.0
 (Enter /public/home/jackie_lijiaqi/g16/l302.exe)
 NPDir=0 NMtPBC=     1 NCelOv=     1 NCel=       1 NClECP=     1 NCelD=      1
         NCelK=      1 NCelE2=     1 NClLst=     1 CellRange=     0.0.
 One-electron integrals computed using PRISM.
 One-electron integral symmetry used in STVInt
 NBasis=    94 RedAO= T EigKep=  1.54D-03  NBF=    94
 NBsUse=    94 1.00D-06 EigRej= -1.00D+00 NBFU=    94
 Precomputing XC quadrature grid using
 IXCGrd= 4 IRadAn=           5 IRanWt=          -1 IRanGd=           0 AccXCQ= 0.00D+00.
 Generated NRdTot=       0 NPtTot=           0 NUsed=           0 NTot=          32
 NSgBfM=    94    94    94    94    94 MxSgAt=     8 MxSgA2=     8.
 Leave Link  302 at Wed Dec 28 13:52:44 2022, MaxMem=  7516192768 cpu:               2.5 elap:               0.1
 (Enter /public/home/jackie_lijiaqi/g16/l303.exe)
 DipDrv:  MaxL=1.
 Leave Link  303 at Wed Dec 28 13:52:44 2022, MaxMem=  7516192768 cpu:               0.5 elap:               0.0
 (Enter /public/home/jackie_lijiaqi/g16/l401.exe)
 Initial guess from the checkpoint file:  "/public/home/jackie_lijiaqi/g16/scratch/Gau-249605.chk"
 B after Tr=    -0.000000   -0.000000   -0.000000
         Rot=    1.000000   -0.000000    0.000001   -0.000026 Ang=   0.00 deg.
 Guess basis will be translated and rotated to current coordinates.
 JPrj=2 DoOrth=T DoCkMO=T.
 Generating alternative initial guess.
 ExpMin= 1.61D-01 ExpMax= 4.17D+03 ExpMxC= 6.27D+02 IAcc=3 IRadAn=         5 AccDes= 0.00D+00
 Harris functional with IExCor=  402 and IRadAn=       5 diagonalized for initial guess.
 HarFok:  IExCor=  402 AccDes= 0.00D+00 IRadAn=         5 IDoV= 1 UseB2=F ITyADJ=14
 ICtDFT=  3500011 ScaDFX=  1.000000  1.000000  1.000000  1.000000
 FoFCou: FMM=F IPFlag=           0 FMFlag=      100000 FMFlg1=           0
         NFxFlg=           0 DoJE=T BraDBF=F KetDBF=T FulRan=T
         wScrn=  0.000000 ICntrl=       500 IOpCl=  0 I1Cent=   200000004 NGrid=           0
         NMat0=    1 NMatS0=      1 NMatT0=    0 NMatD0=    1 NMtDS0=    0 NMtDT0=    0
 Petite list used in FoFCou.
 Harris En= -296.270767228547    
 Leave Link  401 at Wed Dec 28 13:52:44 2022, MaxMem=  7516192768 cpu:               5.2 elap:               0.2
 (Enter /public/home/jackie_lijiaqi/g16/l502.exe)
 Keep R1 ints in memory in canonical form, NReq=35682887.
 FoFCou: FMM=F IPFlag=           0 FMFlag=           0 FMFlg1=           0
         NFxFlg=           0 DoJE=F BraDBF=F KetDBF=F FulRan=T
         wScrn=  0.000000 ICntrl=       600 IOpCl=  0 I1Cent=           0 NGrid=           0
         NMat0=    1 NMatS0=   4465 NMatT0=    0 NMatD0=    1 NMtDS0=    0 NMtDT0=    0
 Symmetry not used in FoFCou.
 Two-electron integral symmetry not used.
 Closed shell SCF:
 Using DIIS extrapolation, IDIIS=  1040.
 NGot=  7516192768 LenX=  7506200851 LenY=  7506191574
 Requested convergence on RMS density matrix=1.00D-08 within 128 cycles.
 Requested convergence on MAX density matrix=1.00D-06.
 Requested convergence on             energy=1.00D-06.
 No special actions if energy rises.
 Integral accuracy reduced to 1.0D-05 until final iterations.

 Cycle   1  Pass 0  IDiag  1:
 E= -296.333078450720    
 DIIS: error= 1.21D-03 at cycle   1 NSaved=   1.
 NSaved= 1 IEnMin= 1 EnMin= -296.333078450720     IErMin= 1 ErrMin= 1.21D-03
 ErrMax= 1.21D-03  0.00D+00 EMaxC= 1.00D-01 BMatC= 9.95D-05 BMatP= 9.95D-05
 IDIUse=3 WtCom= 9.88D-01 WtEn= 1.21D-02
 Coeff-Com:  0.100D+01
 Coeff-En:   0.100D+01
 Coeff:      0.100D+01
 Gap=     1.458 Goal=   None    Shift=    0.000
 GapD=    1.458 DampG=2.000 DampE=1.000 DampFc=2.0000 IDamp=-1.
 RMSDP=2.40D-04 MaxDP=2.39D-03              OVMax= 1.05D-02

 Cycle   2  Pass 0  IDiag  1:
 E= -296.333344926995     Delta-E=       -0.000266476275 Rises=F Damp=F
 DIIS: error= 2.21D-04 at cycle   2 NSaved=   2.
 NSaved= 2 IEnMin= 2 EnMin= -296.333344926995     IErMin= 2 ErrMin= 2.21D-04
 ErrMax= 2.21D-04  0.00D+00 EMaxC= 1.00D-01 BMatC= 3.50D-06 BMatP= 9.95D-05
 IDIUse=3 WtCom= 9.98D-01 WtEn= 2.21D-03
 Coeff-Com: -0.744D-01 0.107D+01
 Coeff-En:   0.000D+00 0.100D+01
 Coeff:     -0.742D-01 0.107D+01
 Gap=     0.135 Goal=   None    Shift=    0.000
 RMSDP=6.03D-05 MaxDP=4.77D-04 DE=-2.66D-04 OVMax= 3.34D-03

 Cycle   3  Pass 0  IDiag  1:
 E= -296.333354279388     Delta-E=       -0.000009352392 Rises=F Damp=F
 DIIS: error= 1.28D-04 at cycle   3 NSaved=   3.
 NSaved= 3 IEnMin= 3 EnMin= -296.333354279388     IErMin= 3 ErrMin= 1.28D-04
 ErrMax= 1.28D-04  0.00D+00 EMaxC= 1.00D-01 BMatC= 1.08D-06 BMatP= 3.50D-06
 IDIUse=3 WtCom= 9.99D-01 WtEn= 1.28D-03
 Coeff-Com: -0.388D-01 0.357D+00 0.682D+00
 Coeff-En:   0.000D+00 0.000D+00 0.100D+01
 Coeff:     -0.387D-01 0.357D+00 0.682D+00
 Gap=     0.135 Goal=   None    Shift=    0.000
 RMSDP=1.92D-05 MaxDP=2.04D-04 DE=-9.35D-06 OVMax= 8.87D-04

 Cycle   4  Pass 0  IDiag  1:
 E= -296.333355249582     Delta-E=       -0.000000970195 Rises=F Damp=F
 DIIS: error= 9.61D-05 at cycle   4 NSaved=   4.
 NSaved= 4 IEnMin= 4 EnMin= -296.333355249582     IErMin= 4 ErrMin= 9.61D-05
 ErrMax= 9.61D-05  0.00D+00 EMaxC= 1.00D-01 BMatC= 5.17D-07 BMatP= 1.08D-06
 IDIUse=1 WtCom= 1.00D+00 WtEn= 0.00D+00
 Coeff-Com: -0.567D-02 0.895D-02 0.408D+00 0.589D+00
 Coeff:     -0.567D-02 0.895D-02 0.408D+00 0.589D+00
 Gap=     0.135 Goal=   None    Shift=    0.000
 RMSDP=9.44D-06 MaxDP=1.07D-04 DE=-9.70D-07 OVMax= 5.14D-04

 Initial convergence to 1.0D-05 achieved.  Increase integral accuracy.
 Cycle   5  Pass 1  IDiag  1:
 E= -296.333355157755     Delta-E=        0.000000091827 Rises=F Damp=F
 DIIS: error= 1.25D-05 at cycle   1 NSaved=   1.
 NSaved= 1 IEnMin= 1 EnMin= -296.333355157755     IErMin= 1 ErrMin= 1.25D-05
 ErrMax= 1.25D-05  0.00D+00 EMaxC= 1.00D-01 BMatC= 1.48D-08 BMatP= 1.48D-08
 IDIUse=1 WtCom= 1.00D+00 WtEn= 0.00D+00
 Coeff-Com:  0.100D+01
 Coeff:      0.100D+01
 Gap=     0.135 Goal=   None    Shift=    0.000
 RMSDP=9.44D-06 MaxDP=1.07D-04 DE= 9.18D-08 OVMax= 2.58D-04

 Cycle   6  Pass 1  IDiag  1:
 E= -296.333355189695     Delta-E=       -0.000000031939 Rises=F Damp=F
 DIIS: error= 1.21D-05 at cycle   2 NSaved=   2.
 NSaved= 2 IEnMin= 2 EnMin= -296.333355189695     IErMin= 2 ErrMin= 1.21D-05
 ErrMax= 1.21D-05  0.00D+00 EMaxC= 1.00D-01 BMatC= 1.15D-08 BMatP= 1.48D-08
 IDIUse=1 WtCom= 1.00D+00 WtEn= 0.00D+00
 Coeff-Com:  0.458D+00 0.542D+00
 Coeff:      0.458D+00 0.542D+00
 Gap=     0.135 Goal=   None    Shift=    0.000
 RMSDP=1.35D-06 MaxDP=2.24D-05 DE=-3.19D-08 OVMax= 5.39D-05

 Cycle   7  Pass 1  IDiag  1:
 E= -296.333355200841     Delta-E=       -0.000000011146 Rises=F Damp=F
 DIIS: error= 5.09D-06 at cycle   3 NSaved=   3.
 NSaved= 3 IEnMin= 3 EnMin= -296.333355200841     IErMin= 3 ErrMin= 5.09D-06
 ErrMax= 5.09D-06  0.00D+00 EMaxC= 1.00D-01 BMatC= 1.70D-09 BMatP= 1.15D-08
 IDIUse=1 WtCom= 1.00D+00 WtEn= 0.00D+00
 Coeff-Com: -0.253D-01 0.244D+00 0.781D+00
 Coeff:     -0.253D-01 0.244D+00 0.781D+00
 Gap=     0.135 Goal=   None    Shift=    0.000
 RMSDP=9.73D-07 MaxDP=8.00D-06 DE=-1.11D-08 OVMax= 6.20D-05

 Cycle   8  Pass 1  IDiag  1:
 E= -296.333355203599     Delta-E=       -0.000000002758 Rises=F Damp=F
 DIIS: error= 1.54D-06 at cycle   4 NSaved=   4.
 NSaved= 4 IEnMin= 4 EnMin= -296.333355203599     IErMin= 4 ErrMin= 1.54D-06
 ErrMax= 1.54D-06  0.00D+00 EMaxC= 1.00D-01 BMatC= 3.10D-10 BMatP= 1.70D-09
 IDIUse=1 WtCom= 1.00D+00 WtEn= 0.00D+00
 Coeff-Com: -0.950D-01 0.267D-01 0.385D+00 0.683D+00
 Coeff:     -0.950D-01 0.267D-01 0.385D+00 0.683D+00
 Gap=     0.135 Goal=   None    Shift=    0.000
 RMSDP=4.52D-07 MaxDP=4.67D-06 DE=-2.76D-09 OVMax= 2.72D-05

 Cycle   9  Pass 1  IDiag  1:
 E= -296.333355204029     Delta-E=       -0.000000000430 Rises=F Damp=F
 DIIS: error= 1.22D-06 at cycle   5 NSaved=   5.
 NSaved= 5 IEnMin= 5 EnMin= -296.333355204029     IErMin= 5 ErrMin= 1.22D-06
 ErrMax= 1.22D-06  0.00D+00 EMaxC= 1.00D-01 BMatC= 8.65D-11 BMatP= 3.10D-10
 IDIUse=1 WtCom= 1.00D+00 WtEn= 0.00D+00
 Coeff-Com: -0.654D-01-0.429D-02 0.197D+00 0.458D+00 0.415D+00
 Coeff:     -0.654D-01-0.429D-02 0.197D+00 0.458D+00 0.415D+00
 Gap=     0.135 Goal=   None    Shift=    0.000
 RMSDP=1.28D-07 MaxDP=2.13D-06 DE=-4.30D-10 OVMax= 5.19D-06

 Cycle  10  Pass 1  IDiag  1:
 E= -296.333355204119     Delta-E=       -0.000000000090 Rises=F Damp=F
 DIIS: error= 3.19D-07 at cycle   6 NSaved=   6.
 NSaved= 6 IEnMin= 6 EnMin= -296.333355204119     IErMin= 6 ErrMin= 3.19D-07
 ErrMax= 3.19D-07  0.00D+00 EMaxC= 1.00D-01 BMatC= 7.19D-12 BMatP= 8.65D-11
 IDIUse=1 WtCom= 1.00D+00 WtEn= 0.00D+00
 Coeff-Com: -0.151D-01-0.146D-01 0.272D-02 0.817D-01 0.242D+00 0.704D+00
 Coeff:     -0.151D-01-0.146D-01 0.272D-02 0.817D-01 0.242D+00 0.704D+00
 Gap=     0.135 Goal=   None    Shift=    0.000
 RMSDP=6.02D-08 MaxDP=5.19D-07 DE=-9.02D-11 OVMax= 3.73D-06

 Cycle  11  Pass 1  IDiag  1:
 E= -296.333355204129     Delta-E=       -0.000000000010 Rises=F Damp=F
 DIIS: error= 5.97D-08 at cycle   7 NSaved=   7.
 NSaved= 7 IEnMin= 7 EnMin= -296.333355204129     IErMin= 7 ErrMin= 5.97D-08
 ErrMax= 5.97D-08  0.00D+00 EMaxC= 1.00D-01 BMatC= 2.35D-13 BMatP= 7.19D-12
 IDIUse=1 WtCom= 1.00D+00 WtEn= 0.00D+00
 Coeff-Com: -0.302D-02-0.471D-02-0.455D-02 0.152D-01 0.751D-01 0.267D+00
 Coeff-Com:  0.655D+00
 Coeff:     -0.302D-02-0.471D-02-0.455D-02 0.152D-01 0.751D-01 0.267D+00
 Coeff:      0.655D+00
 Gap=     0.135 Goal=   None    Shift=    0.000
 RMSDP=8.76D-09 MaxDP=1.79D-07 DE=-9.83D-12 OVMax= 4.28D-07

 SCF Done:  E(RB3LYP) =  -296.333355204     A.U. after   11 cycles
            NFock= 11  Conv=0.88D-08     -V/T= 2.0091
 KE= 2.936606374806D+02 PE=-1.114140463543D+03 EE= 3.118785326053D+02
 Leave Link  502 at Wed Dec 28 13:52:45 2022, MaxMem=  7516192768 cpu:              25.2 elap:               1.0
 (Enter /public/home/jackie_lijiaqi/g16/l701.exe)
 ... and contract with generalized density number  0.
 Compute integral first derivatives.
 R6Disp: Adding Grimme-D3(BJ) dispersion energy 1st derivatives to the gradient.
 Leave Link  701 at Wed Dec 28 13:52:45 2022, MaxMem=  7516192768 cpu:               2.4 elap:               0.1
 (Enter /public/home/jackie_lijiaqi/g16/l702.exe)
 L702 exits ... SP integral derivatives will be done elsewhere.
 Leave Link  702 at Wed Dec 28 13:52:45 2022, MaxMem=  7516192768 cpu:               0.5 elap:               0.0
 (Enter /public/home/jackie_lijiaqi/g16/l703.exe)
 Integral derivatives from FoFJK, PRISM(SPDF).
 Compute integral first derivatives, UseDBF=F ICtDFT=           0.
 Calling FoFJK, ICntrl=      2127 FMM=F ISym2X=0 I1Cent= 0 IOpClX= 0 NMat=1 NMatS=1 NMatT=0.
 FoFJK:  IHMeth= 1 ICntrl=    2127 DoSepK=F KAlg= 0 I1Cent=           0 FoldK=F
 IRaf=         0 NMat=       1 IRICut=       1 DoRegI=T DoRafI=F ISym2E= 0 IDoP0=0 IntGTp=1.
 FoFCou: FMM=F IPFlag=           0 FMFlag=      100000 FMFlg1=         800
         NFxFlg=           0 DoJE=F BraDBF=F KetDBF=F FulRan=T
         wScrn=  0.000000 ICntrl=      2127 IOpCl=  0 I1Cent=           0 NGrid=           0
         NMat0=    1 NMatS0=      1 NMatT0=    0 NMatD0=    1 NMtDS0=    0 NMtDT0=    0
 Symmetry not used in FoFCou.
 Leave Link  703 at Wed Dec 28 13:52:46 2022, MaxMem=  7516192768 cpu:              10.2 elap:               0.4
 (Enter /public/home/jackie_lijiaqi/g16/l716.exe)
 Dipole        =-6.73823356D-07 7.53134756D-06 3.06301135D-03
 ***** Axes restored to original set *****
 -------------------------------------------------------------------
 Center     Atomic                   Forces (Hartrees/Bohr)
 Number     Number              X              Y              Z
 -------------------------------------------------------------------
      1        6           0.000003493   -0.000451960   -0.000043973
      2        7           0.000194956    0.001205916    0.000030050
      3        7           0.000190944   -0.001208541    0.000029841
      4        6           0.000002070    0.000453038   -0.000042740
      5        7          -0.000196364   -0.001211824    0.000030542
      6        7          -0.000194790    0.001212802    0.000029347
      7        1           0.000000121    0.000084017   -0.000016070
      8        1          -0.000000431   -0.000083449   -0.000016997
 -------------------------------------------------------------------
 Cartesian Forces:  Max     0.001212802 RMS     0.000517873
 Leave Link  716 at Wed Dec 28 13:52:46 2022, MaxMem=  7516192768 cpu:               0.5 elap:               0.0
 (Enter /public/home/jackie_lijiaqi/g16/l103.exe)

 GradGradGradGradGradGradGradGradGradGradGradGradGradGradGradGradGradGrad
 Berny optimization.
 Using GEDIIS/GDIIS optimizer.
 FormGI is forming the generalized inverse of G from B-inverse, IUseBI=4.
 Internal  Forces:  Max     0.001027284 RMS     0.000294159
 Search for a local minimum.
 Step number   5 out of a maximum of   38
 All quantities printed in internal units (Hartrees-Bohrs-Radians)
 RMS Force = .29416D-03 SwitMx=.10000D-02 MixMth= 2
 Mixed Optimization -- En-DIIS/RFO-DIIS
 Swapping is turned off.
 Update second derivatives using D2CorX and points    3    4    5
 DE= -4.25D-05 DEPred=-3.53D-05 R= 1.20D+00
 TightC=F SS=  1.41D+00  RLast= 6.14D-02 DXNew= 1.4270D+00 1.8408D-01
 Trust test= 1.20D+00 RLast= 6.14D-02 DXMaxT set to 8.49D-01
 ITU=  1  1  1  1  0
     Eigenvalues ---    0.01128   0.02687   0.02695   0.02708   0.05072
     Eigenvalues ---    0.16000   0.16000   0.20844   0.23630   0.25000
     Eigenvalues ---    0.36440   0.36610   0.54108   0.57899   0.59034
     Eigenvalues ---    0.61151   0.65319   0.68150
 En-DIIS/RFO-DIIS/Sim-DIIS IScMMF=       -3 using points:     5    4
 RFO step:  Lambda=-5.39408149D-06.
 NNeg= 0 NGDIIS= 2 SimSw=  2.50D-01 Rises=F DC= -4.25D-05 SmlDif=  1.00D-05
 NRisDI= 0 DoIntr=F SqrtH=F CThrHd= 10.0 CDAdj=  3.0
 RMS Error=  0.1598770003D-02 NUsed= 2 OKEnD=T EnDIS=F
 InvSVX:  RCond= 9.36D-04 Info=           0 Equed=N FErr=  1.29D-15 BErr=  8.70D-17
 DidBck=F Rises=F RFO-DIIS coefs:    1.12805   -0.12805
 Iteration  1 RMS(Cart)=  0.00157744 RMS(Int)=  0.00000528
 Iteration  2 RMS(Cart)=  0.00000210 RMS(Int)=  0.00000498
 Iteration  3 RMS(Cart)=  0.00000000 RMS(Int)=  0.00000498
 ITry= 1 IFail=0 DXMaxC= 4.31D-03 DCOld= 1.00D+10 DXMaxT= 8.49D-01 DXLimC= 3.00D+00 Rises=F
 Variable       Old X    -DE/DX   Delta X   Delta X   Delta X     New X
                                 (Linear)    (Quad)   (Total)
    R1        2.53001   0.00025  -0.00005   0.00041   0.00036   2.53037
    R2        2.52999   0.00026  -0.00005   0.00042   0.00037   2.53036
    R3        2.05160  -0.00008   0.00004  -0.00034  -0.00029   2.05131
    R4        2.50751  -0.00102  -0.00046  -0.00156  -0.00202   2.50549
    R5        2.53001   0.00026  -0.00005   0.00041   0.00036   2.53037
    R6        2.52999   0.00026  -0.00005   0.00041   0.00036   2.53036
    R7        2.05160  -0.00008   0.00004  -0.00033  -0.00029   2.05131
    R8        2.50754  -0.00103  -0.00046  -0.00157  -0.00203   2.50551
    A1        2.20961  -0.00010  -0.00028  -0.00044  -0.00073   2.20888
    A2        2.03678   0.00005   0.00014   0.00022   0.00036   2.03715
    A3        2.03679   0.00005   0.00014   0.00022   0.00036   2.03715
    A4        2.03679   0.00005   0.00016   0.00022   0.00036   2.03715
    A5        2.03678   0.00005   0.00016   0.00022   0.00037   2.03715
    A6        2.20962  -0.00010  -0.00028  -0.00044  -0.00073   2.20888
    A7        2.03678   0.00005   0.00014   0.00022   0.00037   2.03715
    A8        2.03679   0.00005   0.00014   0.00022   0.00036   2.03715
    A9        2.03678   0.00005   0.00016   0.00022   0.00037   2.03715
   A10        2.03679   0.00005   0.00016   0.00022   0.00037   2.03715
    D1        0.00269  -0.00003  -0.00289  -0.00054  -0.00343  -0.00074
    D2       -3.13998  -0.00001  -0.00263   0.00078  -0.00185   3.14136
    D3       -0.00268   0.00003   0.00289   0.00053   0.00342   0.00075
    D4        3.13999   0.00001   0.00263  -0.00079   0.00184  -3.14136
    D5       -0.00001   0.00000   0.00000   0.00001   0.00001   0.00000
    D6       -0.00268   0.00003   0.00289   0.00053   0.00342   0.00074
    D7        3.13997   0.00002   0.00262  -0.00075   0.00188  -3.14134
    D8        0.00269  -0.00003  -0.00289  -0.00054  -0.00342  -0.00074
    D9       -3.13996  -0.00002  -0.00262   0.00074  -0.00188   3.14134
   D10       -0.00001   0.00000   0.00000   0.00001   0.00001  -0.00000
         Item               Value     Threshold  Converged?
 Maximum Force            0.001027     0.000450     NO 
 RMS     Force            0.000294     0.000300     YES
 Maximum Displacement     0.004309     0.001800     NO 
 RMS     Displacement     0.001578     0.001200     NO 
 Predicted change in Energy=-2.697379D-06
 Lowest energy point so far.  Saving SCF results.
 GradGradGradGradGradGradGradGradGradGradGradGradGradGradGradGradGradGrad

 Leave Link  103 at Wed Dec 28 13:52:46 2022, MaxMem=  7516192768 cpu:               0.9 elap:               0.1
 (Enter /public/home/jackie_lijiaqi/g16/l202.exe)
                          Input orientation:                          
 ---------------------------------------------------------------------
 Center     Atomic      Atomic             Coordinates (Angstroms)
 Number     Number       Type             X           Y           Z
 ---------------------------------------------------------------------
      1          6           0       -0.002039   -1.264986    0.097263
      2          7           0        1.194962   -0.664863    0.097652
      3          7           0        1.197112    0.660985    0.097640
      4          6           0        0.002067    1.264991    0.097241
      5          7           0       -1.194928    0.664872    0.097650
      6          7           0       -1.197080   -0.660984    0.097664
      7          1           0       -0.003798   -2.350490    0.097047
      8          1           0        0.003832    2.350495    0.096985
 ---------------------------------------------------------------------
                    Distance matrix (angstroms):
                    1          2          3          4          5
     1  C    0.000000
     2  N    1.339014   0.000000
     3  N    2.268773   1.325850   0.000000
     4  C    2.529980   2.268774   1.339014   0.000000
     5  N    2.268774   2.734916   2.392044   1.339007   0.000000
     6  N    1.339007   2.392045   2.734915   2.268773   1.325857
     7  H    1.085506   2.068420   3.242093   3.615486   3.242098
     8  H    3.615486   3.242095   2.068421   1.085506   2.068418
                    6          7          8
     6  N    0.000000
     7  H    2.068418   0.000000
     8  H    3.242097   4.700992   0.000000
 Stoichiometry    C2H2N4
 Framework group  C1[X(C2H2N4)]
 Deg. of freedom    18
 Full point group                 C1      NOp   1
 RotChk:  IX=2 Diff= 3.56D-05
 Largest Abelian subgroup         C1      NOp   1
 Largest concise Abelian subgroup C1      NOp   1
                         Standard orientation:                         
 ---------------------------------------------------------------------
 Center     Atomic      Atomic             Coordinates (Angstroms)
 Number     Number       Type             X           Y           Z
 ---------------------------------------------------------------------
      1          6           0        1.264990   -0.000012   -0.000244
      2          7           0        0.662935    1.196018    0.000145
      3          7           0       -0.662915    1.196028    0.000132
      4          6           0       -1.264990    0.000008   -0.000266
      5          7           0       -0.662939   -1.196016    0.000143
      6          7           0        0.662918   -1.196027    0.000157
      7          1           0        2.350496   -0.000018   -0.000460
      8          1           0       -2.350496    0.000020   -0.000523
 ---------------------------------------------------------------------
 Rotational constants (GHZ):           6.8150091           6.3074733           3.2757133
 Leave Link  202 at Wed Dec 28 13:52:46 2022, MaxMem=  7516192768 cpu:               0.5 elap:               0.0
 (Enter /public/home/jackie_lijiaqi/g16/l301.exe)
 Standard basis: 6-31G(d) (6D, 7F)
 Ernie: Thresh=  0.10000D-02 Tol=  0.10000D-05 Strict=F.
 There are    94 symmetry adapted cartesian basis functions of A   symmetry.
 There are    94 symmetry adapted basis functions of A   symmetry.
    94 basis functions,   176 primitive gaussians,    94 cartesian basis functions
    21 alpha electrons       21 beta electrons
       nuclear repulsion energy       212.3167447391 Hartrees.
 IExCor=  402 DFT=T Ex+Corr=B3LYP ExCW=0 ScaHFX=  0.200000
 ScaDFX=  0.800000  0.720000  1.000000  0.810000 ScalE2=  1.000000  1.000000
 IRadAn=      5 IRanWt=     -1 IRanGd=            0 ICorTp=0 IEmpDi=141
 NAtoms=    8 NActive=    8 NUniq=    8 SFac= 1.00D+00 NAtFMM=   60 NAOKFM=F Big=F
 Integral buffers will be    131072 words long.
 Raffenetti 2 integral format.
 Two-electron integral symmetry is turned on.
 R6Disp:  Grimme-D3(BJ) Dispersion energy=       -0.0122118424 Hartrees.
 Nuclear repulsion after empirical dispersion term =      212.3045328968 Hartrees.
 Leave Link  301 at Wed Dec 28 13:52:46 2022, MaxMem=  7516192768 cpu:               0.9 elap:               0.0
 (Enter /public/home/jackie_lijiaqi/g16/l302.exe)
 NPDir=0 NMtPBC=     1 NCelOv=     1 NCel=       1 NClECP=     1 NCelD=      1
         NCelK=      1 NCelE2=     1 NClLst=     1 CellRange=     0.0.
 One-electron integrals computed using PRISM.
 One-electron integral symmetry used in STVInt
 NBasis=    94 RedAO= T EigKep=  1.54D-03  NBF=    94
 NBsUse=    94 1.00D-06 EigRej= -1.00D+00 NBFU=    94
 Precomputing XC quadrature grid using
 IXCGrd= 4 IRadAn=           5 IRanWt=          -1 IRanGd=           0 AccXCQ= 0.00D+00.
 Generated NRdTot=       0 NPtTot=           0 NUsed=           0 NTot=          32
 NSgBfM=    94    94    94    94    94 MxSgAt=     8 MxSgA2=     8.
 Leave Link  302 at Wed Dec 28 13:52:46 2022, MaxMem=  7516192768 cpu:               7.5 elap:               0.3
 (Enter /public/home/jackie_lijiaqi/g16/l303.exe)
 DipDrv:  MaxL=1.
 Leave Link  303 at Wed Dec 28 13:52:47 2022, MaxMem=  7516192768 cpu:               2.2 elap:               0.2
 (Enter /public/home/jackie_lijiaqi/g16/l401.exe)
 Initial guess from the checkpoint file:  "/public/home/jackie_lijiaqi/g16/scratch/Gau-249605.chk"
 B after Tr=    -0.000000    0.000000    0.000000
         Rot=    1.000000   -0.000000   -0.000002    0.000013 Ang=  -0.00 deg.
 Guess basis will be translated and rotated to current coordinates.
 JPrj=2 DoOrth=T DoCkMO=T.
 Leave Link  401 at Wed Dec 28 13:52:47 2022, MaxMem=  7516192768 cpu:              14.1 elap:               0.8
 (Enter /public/home/jackie_lijiaqi/g16/l502.exe)
 Keep R1 ints in memory in canonical form, NReq=35682887.
 FoFCou: FMM=F IPFlag=           0 FMFlag=           0 FMFlg1=           0
         NFxFlg=           0 DoJE=F BraDBF=F KetDBF=F FulRan=T
         wScrn=  0.000000 ICntrl=       600 IOpCl=  0 I1Cent=           0 NGrid=           0
         NMat0=    1 NMatS0=   4465 NMatT0=    0 NMatD0=    1 NMtDS0=    0 NMtDT0=    0
 Symmetry not used in FoFCou.
 Two-electron integral symmetry not used.
 Closed shell SCF:
 Using DIIS extrapolation, IDIIS=  1040.
 NGot=  7516192768 LenX=  7506200851 LenY=  7506191574
 Requested convergence on RMS density matrix=1.00D-08 within 128 cycles.
 Requested convergence on MAX density matrix=1.00D-06.
 Requested convergence on             energy=1.00D-06.
 No special actions if energy rises.

 Cycle   1  Pass 1  IDiag  1:
 E= -296.333351468500    
 DIIS: error= 1.75D-04 at cycle   1 NSaved=   1.
 NSaved= 1 IEnMin= 1 EnMin= -296.333351468500     IErMin= 1 ErrMin= 1.75D-04
 ErrMax= 1.75D-04  0.00D+00 EMaxC= 1.00D-01 BMatC= 2.83D-06 BMatP= 2.83D-06
 IDIUse=3 WtCom= 9.98D-01 WtEn= 1.75D-03
 Coeff-Com:  0.100D+01
 Coeff-En:   0.100D+01
 Coeff:      0.100D+01
 Gap=     1.458 Goal=   None    Shift=    0.000
 RMSDP=3.79D-05 MaxDP=3.02D-04              OVMax= 1.61D-03

 Cycle   2  Pass 1  IDiag  1:
 E= -296.333357875168     Delta-E=       -0.000006406669 Rises=F Damp=F
 DIIS: error= 4.03D-05 at cycle   2 NSaved=   2.
 NSaved= 2 IEnMin= 2 EnMin= -296.333357875168     IErMin= 2 ErrMin= 4.03D-05
 ErrMax= 4.03D-05  0.00D+00 EMaxC= 1.00D-01 BMatC= 1.62D-07 BMatP= 2.83D-06
 IDIUse=1 WtCom= 1.00D+00 WtEn= 0.00D+00
 Coeff-Com: -0.537D-02 0.101D+01
 Coeff:     -0.537D-02 0.101D+01
 Gap=     0.135 Goal=   None    Shift=    0.000
 RMSDP=1.04D-05 MaxDP=1.00D-04 DE=-6.41D-06 OVMax= 4.64D-04

 Cycle   3  Pass 1  IDiag  1:
 E= -296.333357970602     Delta-E=       -0.000000095433 Rises=F Damp=F
 DIIS: error= 6.07D-05 at cycle   3 NSaved=   3.
 NSaved= 3 IEnMin= 3 EnMin= -296.333357970602     IErMin= 2 ErrMin= 4.03D-05
 ErrMax= 6.07D-05  0.00D+00 EMaxC= 1.00D-01 BMatC= 2.16D-07 BMatP= 1.62D-07
 IDIUse=1 WtCom= 1.00D+00 WtEn= 0.00D+00
 Coeff-Com: -0.530D-01 0.573D+00 0.480D+00
 Coeff:     -0.530D-01 0.573D+00 0.480D+00
 Gap=     0.135 Goal=   None    Shift=    0.000
 RMSDP=4.76D-06 MaxDP=6.99D-05 DE=-9.54D-08 OVMax= 1.45D-04

 Cycle   4  Pass 1  IDiag  1:
 E= -296.333358162316     Delta-E=       -0.000000191714 Rises=F Damp=F
 DIIS: error= 1.06D-05 at cycle   4 NSaved=   4.
 NSaved= 4 IEnMin= 4 EnMin= -296.333358162316     IErMin= 4 ErrMin= 1.06D-05
 ErrMax= 1.06D-05  0.00D+00 EMaxC= 1.00D-01 BMatC= 6.30D-09 BMatP= 1.62D-07
 IDIUse=1 WtCom= 1.00D+00 WtEn= 0.00D+00
 Coeff-Com: -0.640D-02 0.259D-01 0.149D+00 0.832D+00
 Coeff:     -0.640D-02 0.259D-01 0.149D+00 0.832D+00
 Gap=     0.135 Goal=   None    Shift=    0.000
 RMSDP=1.80D-06 MaxDP=1.53D-05 DE=-1.92D-07 OVMax= 1.18D-04

 Cycle   5  Pass 1  IDiag  1:
 E= -296.333358173007     Delta-E=       -0.000000010691 Rises=F Damp=F
 DIIS: error= 2.88D-06 at cycle   5 NSaved=   5.
 NSaved= 5 IEnMin= 5 EnMin= -296.333358173007     IErMin= 5 ErrMin= 2.88D-06
 ErrMax= 2.88D-06  0.00D+00 EMaxC= 1.00D-01 BMatC= 6.17D-10 BMatP= 6.30D-09
 IDIUse=1 WtCom= 1.00D+00 WtEn= 0.00D+00
 Coeff-Com:  0.389D-02-0.626D-01-0.479D-02 0.271D+00 0.793D+00
 Coeff:      0.389D-02-0.626D-01-0.479D-02 0.271D+00 0.793D+00
 Gap=     0.135 Goal=   None    Shift=    0.000
 RMSDP=6.80D-07 MaxDP=5.83D-06 DE=-1.07D-08 OVMax= 4.40D-05

 Cycle   6  Pass 1  IDiag  1:
 E= -296.333358174273     Delta-E=       -0.000000001266 Rises=F Damp=F
 DIIS: error= 6.09D-07 at cycle   6 NSaved=   6.
 NSaved= 6 IEnMin= 6 EnMin= -296.333358174273     IErMin= 6 ErrMin= 6.09D-07
 ErrMax= 6.09D-07  0.00D+00 EMaxC= 1.00D-01 BMatC= 3.21D-11 BMatP= 6.17D-10
 IDIUse=1 WtCom= 1.00D+00 WtEn= 0.00D+00
 Coeff-Com:  0.214D-02-0.267D-01-0.220D-01-0.899D-02 0.185D+00 0.870D+00
 Coeff:      0.214D-02-0.267D-01-0.220D-01-0.899D-02 0.185D+00 0.870D+00
 Gap=     0.135 Goal=   None    Shift=    0.000
 RMSDP=2.72D-07 MaxDP=2.55D-06 DE=-1.27D-09 OVMax= 1.82D-05

 Cycle   7  Pass 1  IDiag  1:
 E= -296.333358174374     Delta-E=       -0.000000000100 Rises=F Damp=F
 DIIS: error= 3.29D-07 at cycle   7 NSaved=   7.
 NSaved= 7 IEnMin= 7 EnMin= -296.333358174374     IErMin= 7 ErrMin= 3.29D-07
 ErrMax= 3.29D-07  0.00D+00 EMaxC= 1.00D-01 BMatC= 7.10D-12 BMatP= 3.21D-11
 IDIUse=1 WtCom= 1.00D+00 WtEn= 0.00D+00
 Coeff-Com:  0.916D-03-0.108D-01-0.102D-01-0.104D-01 0.575D-01 0.424D+00
 Coeff-Com:  0.549D+00
 Coeff:      0.916D-03-0.108D-01-0.102D-01-0.104D-01 0.575D-01 0.424D+00
 Coeff:      0.549D+00
 Gap=     0.135 Goal=   None    Shift=    0.000
 RMSDP=4.38D-08 MaxDP=9.04D-07 DE=-1.00D-10 OVMax= 1.92D-06

 Cycle   8  Pass 1  IDiag  1:
 E= -296.333358174377     Delta-E=       -0.000000000004 Rises=F Damp=F
 DIIS: error= 2.28D-07 at cycle   8 NSaved=   8.
 NSaved= 8 IEnMin= 8 EnMin= -296.333358174377     IErMin= 8 ErrMin= 2.28D-07
 ErrMax= 2.28D-07  0.00D+00 EMaxC= 1.00D-01 BMatC= 3.60D-12 BMatP= 7.10D-12
 IDIUse=1 WtCom= 1.00D+00 WtEn= 0.00D+00
 Coeff-Com: -0.108D-03 0.197D-02 0.891D-03-0.246D-02-0.295D-01-0.115D-01
 Coeff-Com:  0.436D+00 0.605D+00
 Coeff:     -0.108D-03 0.197D-02 0.891D-03-0.246D-02-0.295D-01-0.115D-01
 Coeff:      0.436D+00 0.605D+00
 Gap=     0.135 Goal=   None    Shift=    0.000
 RMSDP=2.07D-08 MaxDP=3.76D-07 DE=-3.52D-12 OVMax= 7.99D-07

 Cycle   9  Pass 1  IDiag  1:
 E= -296.333358174381     Delta-E=       -0.000000000004 Rises=F Damp=F
 DIIS: error= 2.81D-08 at cycle   9 NSaved=   9.
 NSaved= 9 IEnMin= 9 EnMin= -296.333358174381     IErMin= 9 ErrMin= 2.81D-08
 ErrMax= 2.81D-08  0.00D+00 EMaxC= 1.00D-01 BMatC= 5.83D-14 BMatP= 3.60D-12
 IDIUse=1 WtCom= 1.00D+00 WtEn= 0.00D+00
 Coeff-Com: -0.735D-04 0.122D-02 0.720D-03-0.881D-03-0.167D-01-0.147D-01
 Coeff-Com:  0.211D+00 0.307D+00 0.512D+00
 Coeff:     -0.735D-04 0.122D-02 0.720D-03-0.881D-03-0.167D-01-0.147D-01
 Coeff:      0.211D+00 0.307D+00 0.512D+00
 Gap=     0.135 Goal=   None    Shift=    0.000
 RMSDP=3.51D-09 MaxDP=8.05D-08 DE=-4.21D-12 OVMax= 1.50D-07

 SCF Done:  E(RB3LYP) =  -296.333358174     A.U. after    9 cycles
            NFock=  9  Conv=0.35D-08     -V/T= 2.0091
 KE= 2.936640283335D+02 PE=-1.114215970341D+03 EE= 3.119140509366D+02
 Leave Link  502 at Wed Dec 28 13:52:48 2022, MaxMem=  7516192768 cpu:              25.6 elap:               1.0
 (Enter /public/home/jackie_lijiaqi/g16/l701.exe)
 ... and contract with generalized density number  0.
 Compute integral first derivatives.
 R6Disp: Adding Grimme-D3(BJ) dispersion energy 1st derivatives to the gradient.
 Leave Link  701 at Wed Dec 28 13:52:49 2022, MaxMem=  7516192768 cpu:               5.8 elap:               0.2
 (Enter /public/home/jackie_lijiaqi/g16/l702.exe)
 L702 exits ... SP integral derivatives will be done elsewhere.
 Leave Link  702 at Wed Dec 28 13:52:49 2022, MaxMem=  7516192768 cpu:               0.5 elap:               0.0
 (Enter /public/home/jackie_lijiaqi/g16/l703.exe)
 Integral derivatives from FoFJK, PRISM(SPDF).
 Compute integral first derivatives, UseDBF=F ICtDFT=           0.
 Calling FoFJK, ICntrl=      2127 FMM=F ISym2X=0 I1Cent= 0 IOpClX= 0 NMat=1 NMatS=1 NMatT=0.
 FoFJK:  IHMeth= 1 ICntrl=    2127 DoSepK=F KAlg= 0 I1Cent=           0 FoldK=F
 IRaf=         0 NMat=       1 IRICut=       1 DoRegI=T DoRafI=F ISym2E= 0 IDoP0=0 IntGTp=1.
 FoFCou: FMM=F IPFlag=           0 FMFlag=      100000 FMFlg1=         800
         NFxFlg=           0 DoJE=F BraDBF=F KetDBF=F FulRan=T
         wScrn=  0.000000 ICntrl=      2127 IOpCl=  0 I1Cent=           0 NGrid=           0
         NMat0=    1 NMatS0=      1 NMatT0=    0 NMatD0=    1 NMtDS0=    0 NMtDT0=    0
 Symmetry not used in FoFCou.
 Leave Link  703 at Wed Dec 28 13:52:49 2022, MaxMem=  7516192768 cpu:              15.1 elap:               0.6
 (Enter /public/home/jackie_lijiaqi/g16/l716.exe)
 Dipole        =-5.63449081D-07 4.70483066D-06-7.76428516D-04
 ***** Axes restored to original set *****
 -------------------------------------------------------------------
 Center     Atomic                   Forces (Hartrees/Bohr)
 Number     Number              X              Y              Z
 -------------------------------------------------------------------
      1        6           0.000001884   -0.000148940    0.000030026
      2        7           0.000102643    0.000177430   -0.000012203
      3        7           0.000103131   -0.000177274   -0.000012132
      4        6           0.000002013    0.000148551    0.000027740
      5        7          -0.000105012   -0.000180230   -0.000012065
      6        7          -0.000104383    0.000180537   -0.000012267
      7        1          -0.000000218    0.000003660   -0.000005127
      8        1          -0.000000058   -0.000003734   -0.000003973
 -------------------------------------------------------------------
 Cartesian Forces:  Max     0.000180537 RMS     0.000095234
 Leave Link  716 at Wed Dec 28 13:52:49 2022, MaxMem=  7516192768 cpu:               0.5 elap:               0.0
 (Enter /public/home/jackie_lijiaqi/g16/l103.exe)

 GradGradGradGradGradGradGradGradGradGradGradGradGradGradGradGradGradGrad
 Berny optimization.
 Using GEDIIS/GDIIS optimizer.
 FormGI is forming the generalized inverse of G from B-inverse, IUseBI=4.
 Internal  Forces:  Max     0.000126391 RMS     0.000056142
 Search for a local minimum.
 Step number   6 out of a maximum of   38
 All quantities printed in internal units (Hartrees-Bohrs-Radians)
 RMS Force = .56142D-04 SwitMx=.10000D-02 MixMth= 2
 Mixed Optimization -- En-DIIS/RFO-DIIS
 Swapping is turned off.
 Update second derivatives using D2CorX and points    3    4    5    6
 DE= -2.97D-06 DEPred=-2.70D-06 R= 1.10D+00
 TightC=F SS=  1.41D+00  RLast= 8.47D-03 DXNew= 1.4270D+00 2.5416D-02
 Trust test= 1.10D+00 RLast= 8.47D-03 DXMaxT set to 8.49D-01
 ITU=  1  1  1  1  1  0
     Eigenvalues ---    0.01189   0.02687   0.02695   0.02708   0.05191
     Eigenvalues ---    0.16000   0.16000   0.19709   0.23631   0.25000
     Eigenvalues ---    0.36440   0.36596   0.51372   0.54106   0.59032
     Eigenvalues ---    0.61151   0.65320   0.66913
 En-DIIS/RFO-DIIS/Sim-DIIS IScMMF=       -3 using points:     6    5    4
 RFO step:  Lambda=-2.22025655D-07.
 NNeg= 0 NGDIIS= 3 SimSw=  2.50D-01 Rises=F DC= -2.97D-06 SmlDif=  1.00D-05
 NRisDI= 0 DoIntr=F SqrtH=F CThrHd= 10.0 CDAdj=  3.0
 RMS Error=  0.3027785340D-03 NUsed= 3 OKEnD=F EnDIS=F
 InvSVX:  RCond= 1.29D-06 Info=           0 Equed=N FErr=  4.26D-15 BErr=  8.52D-17
 DidBck=F Rises=F RFO-DIIS coefs:    1.02142   -0.04392    0.02251
 Iteration  1 RMS(Cart)=  0.00026670 RMS(Int)=  0.00000093
 Iteration  2 RMS(Cart)=  0.00000008 RMS(Int)=  0.00000093
 ITry= 1 IFail=0 DXMaxC= 6.07D-04 DCOld= 1.00D+10 DXMaxT= 8.49D-01 DXLimC= 3.00D+00 Rises=F
 Variable       Old X    -DE/DX   Delta X   Delta X   Delta X     New X
                                 (Linear)    (Quad)   (Total)
    R1        2.53037   0.00012   0.00002   0.00022   0.00023   2.53060
    R2        2.53036   0.00013   0.00002   0.00022   0.00024   2.53059
    R3        2.05131  -0.00000  -0.00001  -0.00001  -0.00003   2.05128
    R4        2.50549  -0.00011   0.00004  -0.00030  -0.00026   2.50523
    R5        2.53037   0.00012   0.00002   0.00022   0.00023   2.53060
    R6        2.53036   0.00013   0.00002   0.00022   0.00024   2.53059
    R7        2.05131  -0.00000  -0.00001  -0.00001  -0.00003   2.05128
    R8        2.50551  -0.00011   0.00004  -0.00030  -0.00027   2.50524
    A1        2.20888  -0.00002   0.00003  -0.00026  -0.00022   2.20866
    A2        2.03715   0.00001  -0.00002   0.00013   0.00011   2.03726
    A3        2.03715   0.00001  -0.00002   0.00013   0.00011   2.03726
    A4        2.03715   0.00001  -0.00002   0.00013   0.00011   2.03726
    A5        2.03715   0.00001  -0.00002   0.00013   0.00011   2.03726
    A6        2.20888  -0.00002   0.00003  -0.00026  -0.00022   2.20866
    A7        2.03715   0.00001  -0.00002   0.00013   0.00011   2.03726
    A8        2.03715   0.00001  -0.00002   0.00013   0.00011   2.03726
    A9        2.03715   0.00001  -0.00002   0.00013   0.00011   2.03726
   A10        2.03715   0.00001  -0.00002   0.00013   0.00011   2.03726
    D1       -0.00074   0.00001   0.00043   0.00032   0.00076   0.00001
    D2        3.14136  -0.00000   0.00042  -0.00029   0.00013   3.14149
    D3        0.00075  -0.00001  -0.00043  -0.00032  -0.00076  -0.00001
    D4       -3.14136   0.00000  -0.00042   0.00029  -0.00013  -3.14149
    D5        0.00000  -0.00000  -0.00000  -0.00001  -0.00001  -0.00001
    D6        0.00074  -0.00001  -0.00043  -0.00030  -0.00074   0.00000
    D7       -3.14134   0.00000  -0.00042   0.00024  -0.00018  -3.14152
    D8       -0.00074   0.00001   0.00043   0.00030   0.00074  -0.00000
    D9        3.14134  -0.00000   0.00042  -0.00024   0.00018   3.14152
   D10       -0.00000   0.00000  -0.00000   0.00001   0.00001   0.00001
         Item               Value     Threshold  Converged?
 Maximum Force            0.000126     0.000450     YES
 RMS     Force            0.000056     0.000300     YES
 Maximum Displacement     0.000607     0.001800     YES
 RMS     Displacement     0.000267     0.001200     YES
 Predicted change in Energy=-1.108415D-07
 Optimization completed.
    -- Stationary point found.
                           ----------------------------
                           !   Optimized Parameters   !
                           ! (Angstroms and Degrees)  !
 --------------------------                            --------------------------
 ! Name  Definition              Value          Derivative Info.                !
 --------------------------------------------------------------------------------
 ! R1    R(1,2)                  1.339          -DE/DX =    0.0001              !
 ! R2    R(1,6)                  1.339          -DE/DX =    0.0001              !
 ! R3    R(1,7)                  1.0855         -DE/DX =    0.0                 !
 ! R4    R(2,3)                  1.3259         -DE/DX =   -0.0001              !
 ! R5    R(3,4)                  1.339          -DE/DX =    0.0001              !
 ! R6    R(4,5)                  1.339          -DE/DX =    0.0001              !
 ! R7    R(4,8)                  1.0855         -DE/DX =    0.0                 !
 ! R8    R(5,6)                  1.3259         -DE/DX =   -0.0001              !
 ! A1    A(2,1,6)              126.5597         -DE/DX =    0.0                 !
 ! A2    A(2,1,7)              116.7199         -DE/DX =    0.0                 !
 ! A3    A(6,1,7)              116.7203         -DE/DX =    0.0                 !
 ! A4    A(1,2,3)              116.7201         -DE/DX =    0.0                 !
 ! A5    A(2,3,4)              116.7202         -DE/DX =    0.0                 !
 ! A6    A(3,4,5)              126.5597         -DE/DX =    0.0                 !
 ! A7    A(3,4,8)              116.72           -DE/DX =    0.0                 !
 ! A8    A(5,4,8)              116.7203         -DE/DX =    0.0                 !
 ! A9    A(4,5,6)              116.7201         -DE/DX =    0.0                 !
 ! A10   A(1,6,5)              116.7201         -DE/DX =    0.0                 !
 ! D1    D(6,1,2,3)             -0.0427         -DE/DX =    0.0                 !
 ! D2    D(7,1,2,3)            179.9866         -DE/DX =    0.0                 !
 ! D3    D(2,1,6,5)              0.0427         -DE/DX =    0.0                 !
 ! D4    D(7,1,6,5)           -179.9865         -DE/DX =    0.0                 !
 ! D5    D(1,2,3,4)              0.0001         -DE/DX =    0.0                 !
 ! D6    D(2,3,4,5)              0.0424         -DE/DX =    0.0                 !
 ! D7    D(2,3,4,8)           -179.9854         -DE/DX =    0.0                 !
 ! D8    D(3,4,5,6)             -0.0424         -DE/DX =    0.0                 !
 ! D9    D(8,4,5,6)            179.9855         -DE/DX =    0.0                 !
 ! D10   D(4,5,6,1)             -0.0002         -DE/DX =    0.0                 !
 --------------------------------------------------------------------------------
 Lowest energy point so far.  Saving SCF results.
 Largest change from initial coordinates is atom    7       0.387 Angstoms.
 GradGradGradGradGradGradGradGradGradGradGradGradGradGradGradGradGradGrad

 Leave Link  103 at Wed Dec 28 13:52:49 2022, MaxMem=  7516192768 cpu:               1.6 elap:               0.1
 (Enter /public/home/jackie_lijiaqi/g16/l202.exe)
                          Input orientation:                          
 ---------------------------------------------------------------------
 Center     Atomic      Atomic             Coordinates (Angstroms)
 Number     Number       Type             X           Y           Z
 ---------------------------------------------------------------------
      1          6           0       -0.002039   -1.264986    0.097263
      2          7           0        1.194962   -0.664863    0.097652
      3          7           0        1.197112    0.660985    0.097640
      4          6           0        0.002067    1.264991    0.097241
      5          7           0       -1.194928    0.664872    0.097650
      6          7           0       -1.197080   -0.660984    0.097664
      7          1           0       -0.003798   -2.350490    0.097047
      8          1           0        0.003832    2.350495    0.096985
 ---------------------------------------------------------------------
                    Distance matrix (angstroms):
                    1          2          3          4          5
     1  C    0.000000
     2  N    1.339014   0.000000
     3  N    2.268773   1.325850   0.000000
     4  C    2.529980   2.268774   1.339014   0.000000
     5  N    2.268774   2.734916   2.392044   1.339007   0.000000
     6  N    1.339007   2.392045   2.734915   2.268773   1.325857
     7  H    1.085506   2.068420   3.242093   3.615486   3.242098
     8  H    3.615486   3.242095   2.068421   1.085506   2.068418
                    6          7          8
     6  N    0.000000
     7  H    2.068418   0.000000
     8  H    3.242097   4.700992   0.000000
 Stoichiometry    C2H2N4
 Framework group  C1[X(C2H2N4)]
 Deg. of freedom    18
 Full point group                 C1      NOp   1
 RotChk:  IX=2 Diff= 6.47D-16
 Largest Abelian subgroup         C1      NOp   1
 Largest concise Abelian subgroup C1      NOp   1
                         Standard orientation:                         
 ---------------------------------------------------------------------
 Center     Atomic      Atomic             Coordinates (Angstroms)
 Number     Number       Type             X           Y           Z
 ---------------------------------------------------------------------
      1          6           0        1.264990   -0.000012   -0.000244
      2          7           0        0.662935    1.196018    0.000145
      3          7           0       -0.662915    1.196028    0.000132
      4          6           0       -1.264990    0.000008   -0.000266
      5          7           0       -0.662939   -1.196016    0.000143
      6          7           0        0.662918   -1.196027    0.000157
      7          1           0        2.350496   -0.000018   -0.000460
      8          1           0       -2.350496    0.000020   -0.000523
 ---------------------------------------------------------------------
 Rotational constants (GHZ):           6.8150091           6.3074733           3.2757133
 Leave Link  202 at Wed Dec 28 13:52:49 2022, MaxMem=  7516192768 cpu:               0.6 elap:               0.0
 (Enter /public/home/jackie_lijiaqi/g16/l601.exe)
 Copying SCF densities to generalized density rwf, IOpCl= 0 IROHF=0.

 **********************************************************************

            Population analysis using the SCF Density.

 **********************************************************************

 Orbital symmetries:
       Occupied  (A) (A) (A) (A) (A) (A) (A) (A) (A) (A) (A) (A)
                 (A) (A) (A) (A) (A) (A) (A) (A) (A)
       Virtual   (A) (A) (A) (A) (A) (A) (A) (A) (A) (A) (A) (A)
                 (A) (A) (A) (A) (A) (A) (A) (A) (A) (A) (A) (A)
                 (A) (A) (A) (A) (A) (A) (A) (A) (A) (A) (A) (A)
                 (A) (A) (A) (A) (A) (A) (A) (A) (A) (A) (A) (A)
                 (A) (A) (A) (A) (A) (A) (A) (A) (A) (A) (A) (A)
                 (A) (A) (A) (A) (A) (A) (A) (A) (A) (A) (A) (A)
                 (A)
 The electronic state is 1-A.
 Alpha  occ. eigenvalues --  -14.41829 -14.41828 -14.41801 -14.41801 -10.29279
 Alpha  occ. eigenvalues --  -10.29278  -1.10450  -1.01800  -0.89848  -0.76810
 Alpha  occ. eigenvalues --   -0.72545  -0.59973  -0.54580  -0.51790  -0.49375
 Alpha  occ. eigenvalues --   -0.39055  -0.37438  -0.35990  -0.34812  -0.33957
 Alpha  occ. eigenvalues --   -0.25067
 Alpha virt. eigenvalues --   -0.11576  -0.07190   0.07576   0.11530   0.12185
 Alpha virt. eigenvalues --    0.15400   0.19348   0.27778   0.30692   0.36309
 Alpha virt. eigenvalues --    0.44597   0.48995   0.49395   0.52023   0.54170
 Alpha virt. eigenvalues --    0.62745   0.63791   0.63890   0.64330   0.66126
 Alpha virt. eigenvalues --    0.69669   0.74078   0.75570   0.77274   0.78592
 Alpha virt. eigenvalues --    0.81169   0.86186   0.87746   0.88140   0.89469
 Alpha virt. eigenvalues --    0.92795   1.10064   1.15029   1.20498   1.21040
 Alpha virt. eigenvalues --    1.25757   1.32955   1.33908   1.44711   1.47675
 Alpha virt. eigenvalues --    1.48149   1.48156   1.59762   1.62090   1.65557
 Alpha virt. eigenvalues --    1.77731   1.90471   1.92581   2.00518   2.10802
 Alpha virt. eigenvalues --    2.16013   2.21232   2.22341   2.22835   2.26539
 Alpha virt. eigenvalues --    2.33176   2.41899   2.47066   2.47723   2.61174
 Alpha virt. eigenvalues --    2.65987   2.66468   2.70736   2.72327   2.79524
 Alpha virt. eigenvalues --    3.03616   3.35871   3.58716   3.71144   3.91963
 Alpha virt. eigenvalues --    4.04603   4.11695   4.41259
          Condensed to atoms (all electrons):
               1          2          3          4          5          6
     1  C    4.837070   0.359537  -0.051957  -0.033520  -0.051957   0.359544
     2  N    0.359537   6.739873   0.254548  -0.051957  -0.029408  -0.024209
     3  N   -0.051957   0.254548   6.739873   0.359537  -0.024209  -0.029408
     4  C   -0.033520  -0.051957   0.359537   4.837069   0.359544  -0.051957
     5  N   -0.051957  -0.029408  -0.024209   0.359544   6.739870   0.254544
     6  N    0.359544  -0.024209  -0.029408  -0.051957   0.254544   6.739870
     7  H    0.385612  -0.056729   0.004769   0.000000   0.004769  -0.056728
     8  H    0.000000   0.004769  -0.056728   0.385612  -0.056728   0.004769
               7          8
     1  C    0.385612   0.000000
     2  N   -0.056729   0.004769
     3  N    0.004769  -0.056728
     4  C    0.000000   0.385612
     5  N    0.004769  -0.056728
     6  N   -0.056728   0.004769
     7  H    0.521082   0.000048
     8  H    0.000048   0.521082
 Mulliken charges:
               1
     1  C    0.195671
     2  N   -0.196424
     3  N   -0.196424
     4  C    0.195672
     5  N   -0.196425
     6  N   -0.196425
     7  H    0.197177
     8  H    0.197177
 Sum of Mulliken charges =  -0.00000
 Mulliken charges with hydrogens summed into heavy atoms:
               1
     1  C    0.392848
     2  N   -0.196424
     3  N   -0.196424
     4  C    0.392849
     5  N   -0.196425
     6  N   -0.196425
 Electronic spatial extent (au):  <R**2>=            371.9829
 Charge=             -0.0000 electrons
 Dipole moment (field-independent basis, Debye):
    X=             -0.0000    Y=              0.0000    Z=             -0.0020  Tot=              0.0020
 Quadrupole moment (field-independent basis, Debye-Ang):
   XX=            -27.9257   YY=            -43.3094   ZZ=            -32.3001
   XY=             -0.0001   XZ=              0.0001   YZ=              0.0001
 Traceless Quadrupole moment (field-independent basis, Debye-Ang):
   XX=              6.5860   YY=             -8.7977   ZZ=              2.2116
   XY=             -0.0001   XZ=              0.0001   YZ=              0.0001
 Octapole moment (field-independent basis, Debye-Ang**2):
  XXX=             -0.0000  YYY=              0.0000  ZZZ=              0.0001  XYY=              0.0000
  XXY=              0.0000  XXZ=             -0.0055  XZZ=             -0.0000  YZZ=              0.0000
  YYZ=             -0.0040  XYZ=              0.0000
 Hexadecapole moment (field-independent basis, Debye-Ang**3):
 XXXX=           -185.2340 YYYY=           -254.0269 ZZZZ=            -28.3356 XXXY=             -0.0007
 XXXZ=             -0.0003 YYYX=              0.0000 YYYZ=              0.0006 ZZZX=             -0.0010
 ZZZY=              0.0004 XXYY=            -87.6959 XXZZ=            -43.6326 YYZZ=            -41.2150
 XXYZ=              0.0002 YYXZ=             -0.0005 ZZXY=              0.0000
 N-N= 2.123045328968D+02 E-N=-1.114215970109D+03  KE= 2.936640283335D+02
 No NMR shielding tensors so no spin-rotation constants.
 Leave Link  601 at Wed Dec 28 13:52:50 2022, MaxMem=  7516192768 cpu:               4.5 elap:               0.2
 (Enter /public/home/jackie_lijiaqi/g16/l9999.exe)
 Unable to Open any file for archive entry.
 1\1\GINC-NODE751\FOpt\RB3LYP\6-31G(d)\C2H2N4\JACKIE_LIJIAQI\28-Dec-202
 2\0\\#p opt freq b3lyp/6-31g* em=gd3bj\\$$$$Singlemol####0????\\0,1\C,
 -0.0020392901,-1.2649857712,0.0972634379\N,1.1949616543,-0.6648632922,
 0.0976522952\N,1.1971124461,0.6609850671,0.0976397782\C,0.0020669407,1
 .2649912747,0.0972414007\N,-1.1949280582,0.6648716803,0.0976504202\N,-
 1.1970798137,-0.6609835119,0.0976640582\H,-0.0037977087,-2.3504898947,
 0.0970468884\H,0.0038318296,2.3504954478,0.0969847212\\Version=ES64L-G
 16RevC.01\State=1-A\HF=-296.3333582\RMSD=3.510e-09\RMSF=9.523e-05\Dipo
 le=0.0000047,0.0000006,-0.0007764\Quadrupole=-6.5408228,4.8965358,1.64
 4287,0.0185611,0.0000382,-0.0000529\PG=C01 [X(C2H2N4)]\\@
 The archive entry for this job was punched.


 THE ENLIGHTENED ONE, BECAUSE HE SAW MANKIND DROWNING  
 IN THE GREAT SEA OF BIRTH, DEATH, AND SORROW, LONGED TO SAVE 
 THEM, FOR THIS HE WAS MOVED TO PITY.                         
 BECAUSE HE SAW MEN OF THE WORLD STRAYING IN FALSE PATHS, AND 
 NONE TO GUIDE THEM, FOR THIS HE WAS MOVED TO PITY.           
                     ..................                       
 BECAUSE HE SAW THE MEN OF THE WORLD PLOUGHING THEIR FIELDS,  
 SOWING THE SEED, TRAFFICKING, HUCKSTERING, BUYING, SELLING,  
 AND AT THE END WINNOWING NOTHING BUT BITTERNESS,             
 FOR THIS HE WAS MOVED TO PITY......                   
                   BUDAH'S PITY - UPSAKA SILA SUTRA           
 Leave Link 9999 at Wed Dec 28 13:52:50 2022, MaxMem=  7516192768 cpu:               0.8 elap:               0.0
 Job cpu time:       0 days  0 hours  9 minutes 38.7 seconds.
 Elapsed time:       0 days  0 hours  0 minutes 25.5 seconds.
 File lengths (MBytes):  RWF=     10 Int=      0 D2E=      0 Chk=      2 Scr=      1
 Normal termination of Gaussian 16 at Wed Dec 28 13:52:50 2022.
 (Enter /public/home/jackie_lijiaqi/g16/l1.exe)
 Link1:  Proceeding to internal job step number  2.
 --------------------------------------------------------------------
 #P Geom=AllCheck Guess=TCheck SCRF=Check GenChk RB3LYP/6-31G(d) Freq
 --------------------------------------------------------------------
 1/10=4,29=7,30=1,38=1,40=1/1,3;
 2/12=2,40=1/2;
 3/5=1,6=6,7=1,11=2,14=-4,25=1,30=1,70=2,71=2,74=-5,116=1,124=41,140=1/1,2,3;
 4/5=101/1;
 5/5=2,38=6,98=1/2;
 8/6=4,10=90,11=11/1;
 11/6=1,8=1,9=11,15=111,16=1/1,2,10;
 10/6=1/2;
 6/7=2,8=2,9=2,10=2,28=1/1;
 7/8=1,10=1,25=1/1,2,3,16;
 1/10=4,30=1/3;
 99//99;
 Leave Link    1 at Wed Dec 28 13:52:50 2022, MaxMem=  7516192768 cpu:               0.5 elap:               0.0
 (Enter /public/home/jackie_lijiaqi/g16/l101.exe)
 Structure from the checkpoint file:  "/public/home/jackie_lijiaqi/g16/scratch/Gau-249605.chk"
 ----------------------
 $$$$Singlemol####0????
 ----------------------
 Charge =  0 Multiplicity = 1
 Redundant internal coordinates found in file.  (old form).
 C,0,-0.0020392901,-1.2649857712,0.0972634379
 N,0,1.1949616543,-0.6648632922,0.0976522952
 N,0,1.1971124461,0.6609850671,0.0976397782
 C,0,0.0020669407,1.2649912747,0.0972414007
 N,0,-1.1949280582,0.6648716803,0.0976504202
 N,0,-1.1970798137,-0.6609835119,0.0976640582
 H,0,-0.0037977087,-2.3504898947,0.0970468884
 H,0,0.0038318296,2.3504954478,0.0969847212
 Recover connectivity data from disk.
 ITRead=  0  0  0  0  0  0  0  0
 MicOpt= -1 -1 -1 -1 -1 -1 -1 -1
 NAtoms=      8 NQM=        8 NQMF=       0 NMMI=      0 NMMIF=      0
                NMic=       0 NMicF=      0.
                    Isotopes and Nuclear Properties:
 (Nuclear quadrupole moments (NQMom) in fm**2, nuclear magnetic moments (NMagM)
  in nuclear magnetons)

  Atom         1           2           3           4           5           6           7           8
 IAtWgt=          12          14          14          12          14          14           1           1
 AtmWgt=  12.0000000  14.0030740  14.0030740  12.0000000  14.0030740  14.0030740   1.0078250   1.0078250
 NucSpn=           0           2           2           0           2           2           1           1
 AtZEff=   3.6000000   4.5500000   4.5500000   3.6000000   4.5500000   4.5500000   1.0000000   1.0000000
 NQMom=    0.0000000   2.0440000   2.0440000   0.0000000   2.0440000   2.0440000   0.0000000   0.0000000
 NMagM=    0.0000000   0.4037610   0.4037610   0.0000000   0.4037610   0.4037610   2.7928460   2.7928460
 AtZNuc=   6.0000000   7.0000000   7.0000000   6.0000000   7.0000000   7.0000000   1.0000000   1.0000000
 Leave Link  101 at Wed Dec 28 13:52:50 2022, MaxMem=  7516192768 cpu:               3.8 elap:               0.2
 (Enter /public/home/jackie_lijiaqi/g16/l103.exe)

 GradGradGradGradGradGradGradGradGradGradGradGradGradGradGradGradGradGrad
 Berny optimization.
 Initialization pass.
                           ----------------------------
                           !    Initial Parameters    !
                           ! (Angstroms and Degrees)  !
 --------------------------                            --------------------------
 ! Name  Definition              Value          Derivative Info.                !
 --------------------------------------------------------------------------------
 ! R1    R(1,2)                  1.339          calculate D2E/DX2 analytically  !
 ! R2    R(1,6)                  1.339          calculate D2E/DX2 analytically  !
 ! R3    R(1,7)                  1.0855         calculate D2E/DX2 analytically  !
 ! R4    R(2,3)                  1.3259         calculate D2E/DX2 analytically  !
 ! R5    R(3,4)                  1.339          calculate D2E/DX2 analytically  !
 ! R6    R(4,5)                  1.339          calculate D2E/DX2 analytically  !
 ! R7    R(4,8)                  1.0855         calculate D2E/DX2 analytically  !
 ! R8    R(5,6)                  1.3259         calculate D2E/DX2 analytically  !
 ! A1    A(2,1,6)              126.5597         calculate D2E/DX2 analytically  !
 ! A2    A(2,1,7)              116.7199         calculate D2E/DX2 analytically  !
 ! A3    A(6,1,7)              116.7203         calculate D2E/DX2 analytically  !
 ! A4    A(1,2,3)              116.7201         calculate D2E/DX2 analytically  !
 ! A5    A(2,3,4)              116.7202         calculate D2E/DX2 analytically  !
 ! A6    A(3,4,5)              126.5597         calculate D2E/DX2 analytically  !
 ! A7    A(3,4,8)              116.72           calculate D2E/DX2 analytically  !
 ! A8    A(5,4,8)              116.7203         calculate D2E/DX2 analytically  !
 ! A9    A(4,5,6)              116.7201         calculate D2E/DX2 analytically  !
 ! A10   A(1,6,5)              116.7201         calculate D2E/DX2 analytically  !
 ! D1    D(6,1,2,3)             -0.0427         calculate D2E/DX2 analytically  !
 ! D2    D(7,1,2,3)            179.9866         calculate D2E/DX2 analytically  !
 ! D3    D(2,1,6,5)              0.0427         calculate D2E/DX2 analytically  !
 ! D4    D(7,1,6,5)           -179.9865         calculate D2E/DX2 analytically  !
 ! D5    D(1,2,3,4)              0.0001         calculate D2E/DX2 analytically  !
 ! D6    D(2,3,4,5)              0.0424         calculate D2E/DX2 analytically  !
 ! D7    D(2,3,4,8)           -179.9854         calculate D2E/DX2 analytically  !
 ! D8    D(3,4,5,6)             -0.0424         calculate D2E/DX2 analytically  !
 ! D9    D(8,4,5,6)            179.9855         calculate D2E/DX2 analytically  !
 ! D10   D(4,5,6,1)             -0.0002         calculate D2E/DX2 analytically  !
 --------------------------------------------------------------------------------
 Trust Radius=3.00D-01 FncErr=1.00D-07 GrdErr=1.00D-07 EigMax=2.50D+02 EigMin=1.00D-04
 Number of steps in this run=      2 maximum allowed number of steps=      2.
 GradGradGradGradGradGradGradGradGradGradGradGradGradGradGradGradGradGrad

 Leave Link  103 at Wed Dec 28 13:52:50 2022, MaxMem=  7516192768 cpu:               0.5 elap:               0.0
 (Enter /public/home/jackie_lijiaqi/g16/l202.exe)
                          Input orientation:                          
 ---------------------------------------------------------------------
 Center     Atomic      Atomic             Coordinates (Angstroms)
 Number     Number       Type             X           Y           Z
 ---------------------------------------------------------------------
      1          6           0       -0.002039   -1.264986    0.097263
      2          7           0        1.194962   -0.664863    0.097652
      3          7           0        1.197112    0.660985    0.097640
      4          6           0        0.002067    1.264991    0.097241
      5          7           0       -1.194928    0.664872    0.097650
      6          7           0       -1.197080   -0.660984    0.097664
      7          1           0       -0.003798   -2.350490    0.097047
      8          1           0        0.003832    2.350495    0.096985
 ---------------------------------------------------------------------
                    Distance matrix (angstroms):
                    1          2          3          4          5
     1  C    0.000000
     2  N    1.339014   0.000000
     3  N    2.268773   1.325850   0.000000
     4  C    2.529980   2.268774   1.339014   0.000000
     5  N    2.268774   2.734916   2.392044   1.339007   0.000000
     6  N    1.339007   2.392045   2.734915   2.268773   1.325857
     7  H    1.085506   2.068420   3.242093   3.615486   3.242098
     8  H    3.615486   3.242095   2.068421   1.085506   2.068418
                    6          7          8
     6  N    0.000000
     7  H    2.068418   0.000000
     8  H    3.242097   4.700992   0.000000
 Stoichiometry    C2H2N4
 Framework group  C1[X(C2H2N4)]
 Deg. of freedom    18
 Full point group                 C1      NOp   1
 RotChk:  IX=2 Diff= 3.46D-15
 Largest Abelian subgroup         C1      NOp   1
 Largest concise Abelian subgroup C1      NOp   1
                         Standard orientation:                         
 ---------------------------------------------------------------------
 Center     Atomic      Atomic             Coordinates (Angstroms)
 Number     Number       Type             X           Y           Z
 ---------------------------------------------------------------------
      1          6           0        1.264990   -0.000012   -0.000244
      2          7           0        0.662935    1.196018    0.000145
      3          7           0       -0.662915    1.196028    0.000132
      4          6           0       -1.264990    0.000008   -0.000266
      5          7           0       -0.662939   -1.196016    0.000143
      6          7           0        0.662918   -1.196027    0.000157
      7          1           0        2.350496   -0.000018   -0.000460
      8          1           0       -2.350496    0.000020   -0.000523
 ---------------------------------------------------------------------
 Rotational constants (GHZ):           6.8150091           6.3074733           3.2757133
 Leave Link  202 at Wed Dec 28 13:52:50 2022, MaxMem=  7516192768 cpu:               0.7 elap:               0.0
 (Enter /public/home/jackie_lijiaqi/g16/l301.exe)
 Standard basis: 6-31G(d) (6D, 7F)
 Ernie: Thresh=  0.10000D-02 Tol=  0.10000D-05 Strict=F.
 There are    94 symmetry adapted cartesian basis functions of A   symmetry.
 There are    94 symmetry adapted basis functions of A   symmetry.
    94 basis functions,   176 primitive gaussians,    94 cartesian basis functions
    21 alpha electrons       21 beta electrons
       nuclear repulsion energy       212.3167447391 Hartrees.
 IExCor=  402 DFT=T Ex+Corr=B3LYP ExCW=0 ScaHFX=  0.200000
 ScaDFX=  0.800000  0.720000  1.000000  0.810000 ScalE2=  1.000000  1.000000
 IRadAn=      5 IRanWt=     -1 IRanGd=            0 ICorTp=0 IEmpDi=141
 NAtoms=    8 NActive=    8 NUniq=    8 SFac= 1.00D+00 NAtFMM=   60 NAOKFM=F Big=F
 Integral buffers will be    131072 words long.
 Raffenetti 2 integral format.
 Two-electron integral symmetry is turned on.
 R6Disp:  Grimme-D3(BJ) Dispersion energy=       -0.0122118424 Hartrees.
 Nuclear repulsion after empirical dispersion term =      212.3045328968 Hartrees.
 Leave Link  301 at Wed Dec 28 13:52:50 2022, MaxMem=  7516192768 cpu:               0.9 elap:               0.0
 (Enter /public/home/jackie_lijiaqi/g16/l302.exe)
 NPDir=0 NMtPBC=     1 NCelOv=     1 NCel=       1 NClECP=     1 NCelD=      1
         NCelK=      1 NCelE2=     1 NClLst=     1 CellRange=     0.0.
 One-electron integrals computed using PRISM.
 One-electron integral symmetry used in STVInt
 NBasis=    94 RedAO= T EigKep=  1.54D-03  NBF=    94
 NBsUse=    94 1.00D-06 EigRej= -1.00D+00 NBFU=    94
 Precomputing XC quadrature grid using
 IXCGrd= 4 IRadAn=           5 IRanWt=          -1 IRanGd=           0 AccXCQ= 0.00D+00.
 Generated NRdTot=       0 NPtTot=           0 NUsed=           0 NTot=          32
 NSgBfM=    94    94    94    94    94 MxSgAt=     8 MxSgA2=     8.
 Leave Link  302 at Wed Dec 28 13:52:51 2022, MaxMem=  7516192768 cpu:              11.1 elap:               0.5
 (Enter /public/home/jackie_lijiaqi/g16/l303.exe)
 DipDrv:  MaxL=1.
 Leave Link  303 at Wed Dec 28 13:52:51 2022, MaxMem=  7516192768 cpu:               0.9 elap:               0.1
 (Enter /public/home/jackie_lijiaqi/g16/l401.exe)
 Initial guess from the checkpoint file:  "/public/home/jackie_lijiaqi/g16/scratch/Gau-249605.chk"
 B after Tr=     0.000000    0.000000    0.000000
         Rot=    1.000000    0.000000    0.000000    0.000000 Ang=   0.00 deg.
 Guess basis will be translated and rotated to current coordinates.
 JPrj=2 DoOrth=T DoCkMO=T.
 Leave Link  401 at Wed Dec 28 13:52:51 2022, MaxMem=  7516192768 cpu:               4.0 elap:               0.2
 (Enter /public/home/jackie_lijiaqi/g16/l502.exe)
 Keep R1 ints in memory in canonical form, NReq=35682887.
 FoFCou: FMM=F IPFlag=           0 FMFlag=           0 FMFlg1=           0
         NFxFlg=           0 DoJE=F BraDBF=F KetDBF=F FulRan=T
         wScrn=  0.000000 ICntrl=       600 IOpCl=  0 I1Cent=           0 NGrid=           0
         NMat0=    1 NMatS0=   4465 NMatT0=    0 NMatD0=    1 NMtDS0=    0 NMtDT0=    0
 Symmetry not used in FoFCou.
 Two-electron integral symmetry not used.
 Closed shell SCF:
 Using DIIS extrapolation, IDIIS=  1040.
 NGot=  7516192768 LenX=  7506200851 LenY=  7506191574
 Requested convergence on RMS density matrix=1.00D-08 within 128 cycles.
 Requested convergence on MAX density matrix=1.00D-06.
 Requested convergence on             energy=1.00D-06.
 No special actions if energy rises.

 Cycle   1  Pass 1  IDiag  1:
 E= -296.333358174381    
 DIIS: error= 1.80D-08 at cycle   1 NSaved=   1.
 NSaved= 1 IEnMin= 1 EnMin= -296.333358174381     IErMin= 1 ErrMin= 1.80D-08
 ErrMax= 1.80D-08  0.00D+00 EMaxC= 1.00D-01 BMatC= 2.27D-14 BMatP= 2.27D-14
 IDIUse=1 WtCom= 1.00D+00 WtEn= 0.00D+00
 Coeff-Com:  0.100D+01
 Coeff:      0.100D+01
 Gap=     0.135 Goal=   None    Shift=    0.000
 RMSDP=4.54D-09 MaxDP=9.99D-08              OVMax= 2.00D-07

 SCF Done:  E(RB3LYP) =  -296.333358174     A.U. after    1 cycles
            NFock=  1  Conv=0.45D-08     -V/T= 2.0091
 KE= 2.936640281138D+02 PE=-1.114215969890D+03 EE= 3.119140507046D+02
 Leave Link  502 at Wed Dec 28 13:52:51 2022, MaxMem=  7516192768 cpu:               8.5 elap:               0.4
 (Enter /public/home/jackie_lijiaqi/g16/l801.exe)
 DoSCS=F DFT=T ScalE2(SS,OS)=  1.000000  1.000000
 Range of M.O.s used for correlation:     1    94
 NBasis=    94 NAE=    21 NBE=    21 NFC=     0 NFV=     0
 NROrb=     94 NOA=    21 NOB=    21 NVA=    73 NVB=    73
 Leave Link  801 at Wed Dec 28 13:52:51 2022, MaxMem=  7516192768 cpu:               0.5 elap:               0.0
 (Enter /public/home/jackie_lijiaqi/g16/l1101.exe)
 Using compressed storage, NAtomX=     8.
 Will process      9 centers per pass.
 R6Disp: Adding Grimme-D3(BJ) dispersion energy 1st derivatives to the gradient.
 Leave Link 1101 at Wed Dec 28 13:52:52 2022, MaxMem=  7516192768 cpu:               5.4 elap:               0.3
 (Enter /public/home/jackie_lijiaqi/g16/l1102.exe)
 Symmetrizing basis deriv contribution to polar:
 IMax=3 JMax=2 DiffMx= 0.00D+00
 Leave Link 1102 at Wed Dec 28 13:52:52 2022, MaxMem=  7516192768 cpu:               0.8 elap:               0.0
 (Enter /public/home/jackie_lijiaqi/g16/l1110.exe)
 Forming Gx(P) for the SCF density, NAtomX=     8.
 Integral derivatives from FoFJK, PRISM(SPDF).
 Do as many integral derivatives as possible in FoFJK.
 G2DrvN: MDV=    7516191824.
 G2DrvN: will do     9 centers at a time, making    1 passes.
 Calling FoFCou, ICntrl=  3107 FMM=F I1Cent=   0 AccDes= 0.00D+00.
 FoFJK:  IHMeth= 1 ICntrl=    3107 DoSepK=F KAlg= 0 I1Cent=           0 FoldK=F
 IRaf=         0 NMat=       1 IRICut=       1 DoRegI=T DoRafI=F ISym2E= 0 IDoP0=0 IntGTp=1.
 FoFCou: FMM=F IPFlag=           0 FMFlag=      100000 FMFlg1=           0
         NFxFlg=           0 DoJE=F BraDBF=F KetDBF=F FulRan=T
         wScrn=  0.000000 ICntrl=      3107 IOpCl=  0 I1Cent=           0 NGrid=           0
         NMat0=    1 NMatS0=      1 NMatT0=    0 NMatD0=    1 NMtDS0=    0 NMtDT0=    0
 Symmetry not used in FoFCou.
 End of G2Drv F.D. properties file   721 does not exist.
 End of G2Drv F.D. properties file   722 does not exist.
 End of G2Drv F.D. properties file   788 does not exist.
 Leave Link 1110 at Wed Dec 28 13:52:53 2022, MaxMem=  7516192768 cpu:              41.0 elap:               1.5
 (Enter /public/home/jackie_lijiaqi/g16/l1002.exe)
 Minotr:  Closed shell wavefunction.
          IDoAtm=11111111
          Direct CPHF calculation.
          Differentiating once with respect to electric field.
                with respect to dipole field.
          Differentiating once with respect to nuclear coordinates.
          Requested convergence is 1.0D-08 RMS, and 1.0D-07 maximum.
          Secondary convergence is 1.0D-12 RMS, and 1.0D-12 maximum.
          NewPWx=T KeepS1=F KeepF1=F KeepIn=T MapXYZ=F SortEE=F KeepMc=T.
         2343 words used for storage of precomputed grid.
 Keep R1 ints in memory in canonical form, NReq=35592210.
 FoFCou: FMM=F IPFlag=           0 FMFlag=           0 FMFlg1=           0
         NFxFlg=           0 DoJE=F BraDBF=F KetDBF=F FulRan=T
         wScrn=  0.000000 ICntrl=       600 IOpCl=  0 I1Cent=           0 NGrid=           0
         NMat0=    1 NMatS0=   4465 NMatT0=    0 NMatD0=    1 NMtDS0=    0 NMtDT0=    0
 Symmetry not used in FoFCou.
 Two-electron integral symmetry not used.
          MDV=    7516192768 using IRadAn=       1.
          Solving linear equations simultaneously, MaxMat=       0.
          There are    27 degrees of freedom in the 1st order CPHF.  IDoFFX=6 NUNeed=     3.
     24 vectors produced by pass  0 Test12= 5.68D-15 3.70D-09 XBig12= 6.88D+01 6.35D+00.
 AX will form    24 AO Fock derivatives at one time.
     24 vectors produced by pass  1 Test12= 5.68D-15 3.70D-09 XBig12= 2.12D+01 1.66D+00.
     24 vectors produced by pass  2 Test12= 5.68D-15 3.70D-09 XBig12= 2.15D-01 2.00D-01.
     24 vectors produced by pass  3 Test12= 5.68D-15 3.70D-09 XBig12= 1.98D-03 1.44D-02.
     24 vectors produced by pass  4 Test12= 5.68D-15 3.70D-09 XBig12= 6.85D-06 6.78D-04.
     22 vectors produced by pass  5 Test12= 5.68D-15 3.70D-09 XBig12= 6.58D-09 2.07D-05.
      9 vectors produced by pass  6 Test12= 5.68D-15 3.70D-09 XBig12= 4.69D-12 6.82D-07.
      2 vectors produced by pass  7 Test12= 5.68D-15 3.70D-09 XBig12= 2.09D-15 1.01D-08.
 InvSVY:  IOpt=1 It=  1 EMax= 7.11D-15
 Solved reduced A of dimension   153 with    27 vectors.
 FullF1:  Do perturbations      1 to       3.
 Isotropic polarizability for W=    0.000000       39.24 Bohr**3.
 End of Minotr F.D. properties file   721 does not exist.
 End of Minotr F.D. properties file   722 does not exist.
 End of Minotr F.D. properties file   788 does not exist.
 Leave Link 1002 at Wed Dec 28 13:52:55 2022, MaxMem=  7516192768 cpu:              56.2 elap:               2.2
 (Enter /public/home/jackie_lijiaqi/g16/l601.exe)
 Copying SCF densities to generalized density rwf, IOpCl= 0 IROHF=0.

 **********************************************************************

            Population analysis using the SCF Density.

 **********************************************************************

 Orbital symmetries:
       Occupied  (A) (A) (A) (A) (A) (A) (A) (A) (A) (A) (A) (A)
                 (A) (A) (A) (A) (A) (A) (A) (A) (A)
       Virtual   (A) (A) (A) (A) (A) (A) (A) (A) (A) (A) (A) (A)
                 (A) (A) (A) (A) (A) (A) (A) (A) (A) (A) (A) (A)
                 (A) (A) (A) (A) (A) (A) (A) (A) (A) (A) (A) (A)
                 (A) (A) (A) (A) (A) (A) (A) (A) (A) (A) (A) (A)
                 (A) (A) (A) (A) (A) (A) (A) (A) (A) (A) (A) (A)
                 (A) (A) (A) (A) (A) (A) (A) (A) (A) (A) (A) (A)
                 (A)
 The electronic state is 1-A.
 Alpha  occ. eigenvalues --  -14.41829 -14.41828 -14.41801 -14.41801 -10.29279
 Alpha  occ. eigenvalues --  -10.29278  -1.10450  -1.01800  -0.89848  -0.76810
 Alpha  occ. eigenvalues --   -0.72545  -0.59973  -0.54580  -0.51790  -0.49375
 Alpha  occ. eigenvalues --   -0.39055  -0.37438  -0.35990  -0.34812  -0.33957
 Alpha  occ. eigenvalues --   -0.25067
 Alpha virt. eigenvalues --   -0.11576  -0.07190   0.07576   0.11530   0.12185
 Alpha virt. eigenvalues --    0.15400   0.19348   0.27778   0.30692   0.36309
 Alpha virt. eigenvalues --    0.44597   0.48995   0.49395   0.52023   0.54170
 Alpha virt. eigenvalues --    0.62745   0.63791   0.63890   0.64330   0.66126
 Alpha virt. eigenvalues --    0.69669   0.74078   0.75570   0.77274   0.78592
 Alpha virt. eigenvalues --    0.81169   0.86186   0.87746   0.88140   0.89469
 Alpha virt. eigenvalues --    0.92795   1.10064   1.15029   1.20498   1.21040
 Alpha virt. eigenvalues --    1.25757   1.32955   1.33908   1.44711   1.47675
 Alpha virt. eigenvalues --    1.48149   1.48156   1.59762   1.62090   1.65557
 Alpha virt. eigenvalues --    1.77731   1.90471   1.92581   2.00518   2.10802
 Alpha virt. eigenvalues --    2.16013   2.21232   2.22341   2.22835   2.26539
 Alpha virt. eigenvalues --    2.33176   2.41899   2.47066   2.47723   2.61174
 Alpha virt. eigenvalues --    2.65987   2.66468   2.70736   2.72327   2.79524
 Alpha virt. eigenvalues --    3.03616   3.35871   3.58716   3.71144   3.91963
 Alpha virt. eigenvalues --    4.04603   4.11695   4.41259
          Condensed to atoms (all electrons):
               1          2          3          4          5          6
     1  C    4.837070   0.359537  -0.051957  -0.033520  -0.051957   0.359544
     2  N    0.359537   6.739872   0.254548  -0.051957  -0.029408  -0.024209
     3  N   -0.051957   0.254548   6.739872   0.359538  -0.024209  -0.029408
     4  C   -0.033520  -0.051957   0.359538   4.837069   0.359544  -0.051957
     5  N   -0.051957  -0.029408  -0.024209   0.359544   6.739871   0.254544
     6  N    0.359544  -0.024209  -0.029408  -0.051957   0.254544   6.739870
     7  H    0.385612  -0.056729   0.004769   0.000000   0.004769  -0.056728
     8  H    0.000000   0.004769  -0.056728   0.385612  -0.056728   0.004769
               7          8
     1  C    0.385612   0.000000
     2  N   -0.056729   0.004769
     3  N    0.004769  -0.056728
     4  C    0.000000   0.385612
     5  N    0.004769  -0.056728
     6  N   -0.056728   0.004769
     7  H    0.521082   0.000048
     8  H    0.000048   0.521082
 Mulliken charges:
               1
     1  C    0.195671
     2  N   -0.196423
     3  N   -0.196424
     4  C    0.195672
     5  N   -0.196425
     6  N   -0.196425
     7  H    0.197177
     8  H    0.197177
 Sum of Mulliken charges =  -0.00000
 Mulliken charges with hydrogens summed into heavy atoms:
               1
     1  C    0.392848
     2  N   -0.196423
     3  N   -0.196424
     4  C    0.392849
     5  N   -0.196425
     6  N   -0.196425
 APT charges:
               1
     1  C    0.263471
     2  N   -0.158319
     3  N   -0.158320
     4  C    0.263471
     5  N   -0.158322
     6  N   -0.158322
     7  H    0.053170
     8  H    0.053170
 Sum of APT charges =  -0.00000
 APT charges with hydrogens summed into heavy atoms:
               1
     1  C    0.316641
     2  N   -0.158319
     3  N   -0.158320
     4  C    0.316641
     5  N   -0.158322
     6  N   -0.158322
 Electronic spatial extent (au):  <R**2>=            371.9829
 Charge=             -0.0000 electrons
 Dipole moment (field-independent basis, Debye):
    X=              0.0000    Y=              0.0000    Z=             -0.0020  Tot=              0.0020
 Quadrupole moment (field-independent basis, Debye-Ang):
   XX=            -27.9257   YY=            -43.3094   ZZ=            -32.3001
   XY=             -0.0001   XZ=              0.0001   YZ=              0.0001
 Traceless Quadrupole moment (field-independent basis, Debye-Ang):
   XX=              6.5860   YY=             -8.7977   ZZ=              2.2116
   XY=             -0.0001   XZ=              0.0001   YZ=              0.0001
 Octapole moment (field-independent basis, Debye-Ang**2):
  XXX=             -0.0000  YYY=              0.0000  ZZZ=              0.0001  XYY=              0.0000
  XXY=              0.0000  XXZ=             -0.0055  XZZ=             -0.0000  YZZ=              0.0000
  YYZ=             -0.0040  XYZ=              0.0000
 Hexadecapole moment (field-independent basis, Debye-Ang**3):
 XXXX=           -185.2340 YYYY=           -254.0269 ZZZZ=            -28.3356 XXXY=             -0.0007
 XXXZ=             -0.0003 YYYX=              0.0000 YYYZ=              0.0006 ZZZX=             -0.0010
 ZZZY=              0.0004 XXYY=            -87.6959 XXZZ=            -43.6326 YYZZ=            -41.2150
 XXYZ=              0.0002 YYXZ=             -0.0005 ZZXY=              0.0000
 N-N= 2.123045328968D+02 E-N=-1.114215969577D+03  KE= 2.936640281138D+02
  Exact polarizability:      53.368      -0.000      44.219       0.000      -0.000      20.134
 Approx polarizability:      93.031       0.000      94.017       0.001      -0.000      31.072
 No NMR shielding tensors so no spin-rotation constants.
 Leave Link  601 at Wed Dec 28 13:52:56 2022, MaxMem=  7516192768 cpu:               4.2 elap:               0.2
 (Enter /public/home/jackie_lijiaqi/g16/l701.exe)
 ... and contract with generalized density number  0.
 Compute integral second derivatives.
 R6Disp: Adding Grimme-D3(BJ) dispersion energy 2nd derivatives to the Hessian.
 Leave Link  701 at Wed Dec 28 13:52:56 2022, MaxMem=  7516192768 cpu:               5.8 elap:               0.3
 (Enter /public/home/jackie_lijiaqi/g16/l702.exe)
 L702 exits ... SP integral derivatives will be done elsewhere.
 Leave Link  702 at Wed Dec 28 13:52:56 2022, MaxMem=  7516192768 cpu:               0.5 elap:               0.0
 (Enter /public/home/jackie_lijiaqi/g16/l703.exe)
 Integral derivatives from FoFJK, PRISM(SPDF).
 Compute integral second derivatives, UseDBF=F ICtDFT=           0.
 Calling FoFJK, ICntrl=    100127 FMM=F ISym2X=0 I1Cent= 0 IOpClX= 0 NMat=1 NMatS=1 NMatT=0.
 FoFJK:  IHMeth= 1 ICntrl=  100127 DoSepK=F KAlg= 0 I1Cent=           0 FoldK=F
 IRaf=         0 NMat=       1 IRICut=       1 DoRegI=T DoRafI=F ISym2E= 0 IDoP0=0 IntGTp=1.
 FoFCou: FMM=F IPFlag=           0 FMFlag=      100000 FMFlg1=         800
         NFxFlg=           0 DoJE=F BraDBF=F KetDBF=F FulRan=T
         wScrn=  0.000000 ICntrl=    100127 IOpCl=  0 I1Cent=           0 NGrid=           0
         NMat0=    1 NMatS0=      1 NMatT0=    0 NMatD0=    1 NMtDS0=    0 NMtDT0=    0
 Symmetry not used in FoFCou.
 Leave Link  703 at Wed Dec 28 13:52:58 2022, MaxMem=  7516192768 cpu:              67.0 elap:               2.4
 (Enter /public/home/jackie_lijiaqi/g16/l716.exe)
 Dipole        = 3.45142576D-07 7.21562733D-06-7.76409908D-04
 Polarizability= 5.33676152D+01-6.06343862D-05 4.42192283D+01
                 3.64006279D-04-1.12856178D-04 2.01339705D+01
 Full mass-weighted force constant matrix:
 Low frequencies ---   -9.4321   -8.3359   -0.0014   -0.0010   -0.0008    3.6851
 Low frequencies ---  255.6255  341.7332  649.6127
 Diagonal vibrational polarizability:
        1.1327862       1.1577620      21.9714596
 Harmonic frequencies (cm**-1), IR intensities (KM/Mole), Raman scattering
 activities (A**4/AMU), depolarization ratios for plane and unpolarized
 incident light, reduced masses (AMU), force constants (mDyne/A),
 and normal coordinates:
                      1                      2                      3
                      A                      A                      A
 Frequencies --    255.6255               341.7332               649.6127
 Red. masses --      3.2652                14.0031                12.3733
 Frc consts  --      0.1257                 0.9635                 3.0764
 IR Inten    --     53.3074                 0.0000                 0.0000
  Atom  AN      X      Y      Z        X      Y      Z        X      Y      Z
     1   6     0.00   0.00   0.25    -0.00  -0.00  -0.00     0.00   0.24  -0.00
     2   7    -0.00   0.00  -0.13    -0.00  -0.00  -0.50     0.28   0.34  -0.00
     3   7     0.00   0.00  -0.13    -0.00   0.00   0.50     0.28  -0.34   0.00
     4   6    -0.00   0.00   0.25     0.00   0.00   0.00    -0.00  -0.24   0.00
     5   7     0.00  -0.00  -0.13     0.00   0.00  -0.50    -0.28  -0.34  -0.00
     6   7    -0.00  -0.00  -0.13     0.00  -0.00   0.50    -0.28   0.34   0.00
     7   1     0.00   0.00   0.64    -0.00  -0.00   0.00     0.00  -0.23   0.00
     8   1    -0.00   0.00   0.64     0.00   0.00  -0.00     0.00   0.23  -0.00
                      4                      5                      6
                      A                      A                      A
 Frequencies --    758.5403               821.9026               924.7595
 Red. masses --      9.1916                 5.9009                 1.3455
 Frc consts  --      3.1160                 2.3486                 0.6780
 IR Inten    --      0.0000                 0.0000                 0.5574
  Atom  AN      X      Y      Z        X      Y      Z        X      Y      Z
     1   6     0.39   0.00  -0.00    -0.00  -0.00  -0.24    -0.00  -0.00  -0.12
     2   7     0.01  -0.31  -0.00     0.00  -0.00   0.26    -0.00   0.00   0.03
     3   7    -0.01  -0.31  -0.00     0.00   0.00  -0.26     0.00   0.00   0.03
     4   6    -0.39   0.00  -0.00    -0.00   0.00   0.24     0.00  -0.00  -0.12
     5   7    -0.01   0.31  -0.00     0.00  -0.00  -0.26     0.00  -0.00   0.03
     6   7     0.01   0.31  -0.00     0.00   0.00   0.26    -0.00  -0.00   0.03
     7   1     0.40  -0.00   0.00    -0.00  -0.00  -0.55     0.00   0.00   0.70
     8   1    -0.40   0.00   0.00    -0.00   0.00   0.55    -0.00   0.00   0.70
                      7                      8                      9
                      A                      A                      A
 Frequencies --    989.6231               993.7210              1053.9140
 Red. masses --     10.6249                 1.3129                 8.9330
 Frc consts  --      6.1308                 0.7639                 5.8460
 IR Inten    --     33.9701                 0.0000                 0.0000
  Atom  AN      X      Y      Z        X      Y      Z        X      Y      Z
     1   6    -0.00   0.27   0.00     0.00   0.00  -0.12    -0.38  -0.00   0.00
     2   7     0.38  -0.10  -0.00    -0.00  -0.00   0.01    -0.18  -0.24  -0.00
     3   7    -0.38  -0.10  -0.00    -0.00   0.00  -0.01     0.18  -0.24  -0.00
     4   6     0.00   0.27  -0.00     0.00   0.00   0.12     0.38  -0.00   0.00
     5   7     0.38  -0.10   0.00    -0.00  -0.00  -0.01     0.18   0.24  -0.00
     6   7    -0.38  -0.10   0.00    -0.00   0.00   0.01    -0.18   0.24  -0.00
     7   1    -0.00  -0.34  -0.00     0.00  -0.00   0.70    -0.42   0.00  -0.00
     8   1     0.00  -0.34   0.00     0.00  -0.00  -0.70     0.42   0.00  -0.00
                     10                     11                     12
                      A                      A                      A
 Frequencies --   1097.6635              1158.8419              1238.6046
 Red. masses --     12.1540                 2.1741                 8.0916
 Frc consts  --      8.6279                 1.7202                 7.3139
 IR Inten    --      1.6132                 9.6894                60.9019
  Atom  AN      X      Y      Z        X      Y      Z        X      Y      Z
     1   6     0.24   0.00   0.00     0.00   0.16  -0.00     0.42  -0.00  -0.00
     2   7    -0.11  -0.42  -0.00    -0.05  -0.09  -0.00    -0.19   0.16   0.00
     3   7    -0.11   0.42   0.00     0.05  -0.09  -0.00    -0.19  -0.16  -0.00
     4   6     0.24  -0.00  -0.00    -0.00   0.16  -0.00     0.42   0.00   0.00
     5   7    -0.11  -0.42   0.00    -0.05  -0.09   0.00    -0.19   0.16  -0.00
     6   7    -0.11   0.42  -0.00     0.05  -0.09   0.00    -0.19  -0.16   0.00
     7   1     0.25   0.00  -0.00     0.00   0.67  -0.00     0.45  -0.00  -0.00
     8   1     0.25  -0.00   0.00     0.00   0.67  -0.00     0.45   0.00   0.00
                     13                     14                     15
                      A                      A                      A
 Frequencies --   1336.0208              1482.5445              1487.5381
 Red. masses --      1.2466                12.0596                 1.7643
 Frc consts  --      1.3110                15.6170                 2.3002
 IR Inten    --      0.0000                 0.0000                 2.4785
  Atom  AN      X      Y      Z        X      Y      Z        X      Y      Z
     1   6     0.00   0.04  -0.00    -0.25   0.00   0.00    -0.00  -0.14   0.00
     2   7     0.05  -0.04  -0.00     0.41  -0.13  -0.00     0.07   0.03   0.00
     3   7     0.05   0.04   0.00    -0.41  -0.13  -0.00    -0.07   0.03   0.00
     4   6     0.00  -0.04   0.00     0.25   0.00   0.00     0.00  -0.14   0.00
     5   7    -0.05   0.04  -0.00    -0.41   0.13  -0.00     0.07   0.03  -0.00
     6   7    -0.05  -0.04   0.00     0.41   0.13  -0.00    -0.07   0.03  -0.00
     7   1     0.00   0.70  -0.00    -0.26  -0.00   0.00    -0.00   0.68  -0.00
     8   1     0.00  -0.70   0.00     0.26  -0.00   0.00     0.00   0.68  -0.00
                     16                     17                     18
                      A                      A                      A
 Frequencies --   1571.7762              3231.8338              3233.2045
 Red. masses --      5.1394                 1.0929                 1.0932
 Frc consts  --      7.4807                 6.7255                 6.7332
 IR Inten    --      0.0000                11.0389                 0.0000
  Atom  AN      X      Y      Z        X      Y      Z        X      Y      Z
     1   6     0.00   0.36  -0.00    -0.06   0.00   0.00    -0.06   0.00   0.00
     2   7     0.04  -0.15  -0.00     0.00  -0.00  -0.00    -0.00  -0.00  -0.00
     3   7     0.04   0.15   0.00     0.00   0.00   0.00     0.00  -0.00  -0.00
     4   6     0.00  -0.36   0.00    -0.06   0.00  -0.00     0.06  -0.00   0.00
     5   7    -0.04   0.15  -0.00     0.00  -0.00   0.00     0.00   0.00  -0.00
     6   7    -0.04  -0.15   0.00     0.00   0.00  -0.00    -0.00   0.00  -0.00
     7   1     0.00  -0.57   0.00     0.70  -0.00  -0.00     0.70  -0.00  -0.00
     8   1     0.00   0.57  -0.00     0.70  -0.00   0.00    -0.70   0.00  -0.00

 -------------------
 - Thermochemistry -
 -------------------
 Temperature   298.150 Kelvin.  Pressure   1.00000 Atm.
 Atom     1 has atomic number  6 and mass  12.00000
 Atom     2 has atomic number  7 and mass  14.00307
 Atom     3 has atomic number  7 and mass  14.00307
 Atom     4 has atomic number  6 and mass  12.00000
 Atom     5 has atomic number  7 and mass  14.00307
 Atom     6 has atomic number  7 and mass  14.00307
 Atom     7 has atomic number  1 and mass   1.00783
 Atom     8 has atomic number  1 and mass   1.00783
 Molecular mass:    82.02795 amu.
 Principal axes and moments of inertia in atomic units:
                           1         2         3
     Eigenvalues --   264.81860 286.12744 550.94602
           X            0.00002   1.00000  -0.00001
           Y            1.00000  -0.00002   0.00000
           Z           -0.00000   0.00001   1.00000
 This molecule is an asymmetric top.
 Rotational symmetry number  1.
 Rotational temperatures (Kelvin)      0.32707     0.30271     0.15721
 Rotational constants (GHZ):           6.81501     6.30747     3.27571
 Zero-point vibrational energy     135342.3 (Joules/Mol)
                                   32.34758 (Kcal/Mol)
 Warning -- explicit consideration of   2 degrees of freedom as
           vibrations may cause significant error
 Vibrational temperatures:    367.79   491.68   934.65  1091.37  1182.53
          (Kelvin)           1330.52  1423.85  1429.74  1516.35  1579.29
                             1667.31  1782.08  1922.24  2133.05  2140.24
                             2261.44  4649.89  4651.86
 
 Zero-point correction=                           0.051549 (Hartree/Particle)
 Thermal correction to Energy=                    0.055767
 Thermal correction to Enthalpy=                  0.056711
 Thermal correction to Gibbs Free Energy=         0.024086
 Sum of electronic and zero-point Energies=           -296.281809
 Sum of electronic and thermal Energies=              -296.277591
 Sum of electronic and thermal Enthalpies=            -296.276647
 Sum of electronic and thermal Free Energies=         -296.309272
 
                     E (Thermal)             CV                S
                      KCal/Mol        Cal/Mol-Kelvin    Cal/Mol-Kelvin
 Total                   34.994             14.178             68.666
 Electronic               0.000              0.000              0.000
 Translational            0.889              2.981             39.127
 Rotational               0.889              2.981             25.238
 Vibrational             33.217              8.216              4.301
 Vibration     1          0.666              1.753              1.691
 Vibration     2          0.721              1.592              1.204
                       Q            Log10(Q)             Ln(Q)
 Total Bot       0.834196D-11        -11.078732        -25.509723
 Total V=0       0.428755D+13         12.632209         29.086735
 Vib (Bot)       0.390587D-23        -23.408282        -53.899562
 Vib (Bot)    1  0.761452D+00         -0.118358         -0.272529
 Vib (Bot)    2  0.542766D+00         -0.265388         -0.611078
 Vib (V=0)       0.200751D+01          0.302658          0.696896
 Vib (V=0)    1  0.141094D+01          0.149508          0.344255
 Vib (V=0)    2  0.123797D+01          0.092709          0.213470
 Electronic      0.100000D+01          0.000000          0.000000
 Translational   0.292009D+08          7.465397         17.189711
 Rotational      0.731399D+05          4.864154         11.200129
 
                                                        $$$$Singlemol####0????
                                                             IR Spectrum
 
     33                                                                1 11     1   1  1 1 1                                         
     22                                                                5 44     3   2  1 0 0 99 9   8  7   6           3  2          
     33                                                                7 88     3   3  5 9 5 99 2   2  5   5           4  5          
     32                                                                2 83     6   9  9 8 4 40 5   2  9   0           2  6          
 
      X                                                                  X          X  X X    X X                         X          
      X                                                                             X  X      X                           X          
      X                                                                             X  X      X                           X          
      X                                                                             X         X                           X          
                                                                                    X         X                           X          
                                                                                    X         X                           X          
                                                                                    X         X                           X          
                                                                                    X         X                           X          
                                                                                    X         X                           X          
                                                                                    X         X                           X          
                                                                                    X         X                           X          
                                                                                    X                                     X          
                                                                                    X                                     X          
                                                                                    X                                     X          
                                                                                    X                                     X          
                                                                                    X                                     X          
                                                                                    X                                     X          
                                                                                    X                                     X          
                                                                                    X                                                
                                                                                    X                                                
 
 ***** Axes restored to original set *****
 -------------------------------------------------------------------
 Center     Atomic                   Forces (Hartrees/Bohr)
 Number     Number              X              Y              Z
 -------------------------------------------------------------------
      1        6           0.000001918   -0.000148906    0.000030022
      2        7           0.000102612    0.000177507   -0.000012202
      3        7           0.000103128   -0.000177364   -0.000012131
      4        6           0.000002107    0.000148570    0.000027736
      5        7          -0.000105061   -0.000180203   -0.000012063
      6        7          -0.000104388    0.000180447   -0.000012266
      7        1          -0.000000234    0.000003666   -0.000005125
      8        1          -0.000000083   -0.000003717   -0.000003971
 -------------------------------------------------------------------
 Cartesian Forces:  Max     0.000180447 RMS     0.000095238
 Force constants in Cartesian coordinates: 
                1             2             3             4             5 
      1  0.616222D+00
      2  0.331112D-03  0.825390D+00
      3 -0.211355D-05  0.156943D-03  0.146508D+00
      4 -0.278720D+00 -0.825397D-01 -0.951056D-04  0.471688D+00
      5 -0.213645D-01 -0.176878D+00 -0.450437D-04  0.402230D-01  0.534000D+00
      6 -0.774661D-04 -0.280467D-04 -0.660054D-01  0.874776D-04  0.241815D-04
      7  0.525579D-01 -0.473253D-01 -0.263419D-04 -0.118810D+00 -0.100394D-01
      8 -0.129377D+00 -0.599244D-01 -0.109898D-04  0.942325D-02 -0.308745D+00
      9  0.159547D-04 -0.121706D-04  0.336048D-01  0.139084D-04 -0.124043D-04
     10 -0.110282D+00  0.170255D-03  0.000000D+00  0.531301D-01  0.129010D+00
     11  0.170057D-03 -0.546917D-02  0.224808D-04  0.469582D-01 -0.604965D-01
     12  0.000000D+00 -0.232393D-04 -0.369588D-01 -0.276460D-04  0.129852D-04
     13  0.531300D-01  0.469577D-01  0.261167D-04 -0.210926D-01 -0.597171D-01
     14  0.129009D+00 -0.604963D-01 -0.122389D-04 -0.597170D-01 -0.874599D-01
     15 -0.162128D-04 -0.125572D-04  0.336038D-01  0.707381D-05  0.335114D-04
     16 -0.278396D+00  0.828773D-01  0.971082D-04 -0.997057D-01 -0.468751D-01
     17  0.217027D-01 -0.177221D+00 -0.456744D-04  0.475580D-01  0.110782D+00
     18  0.795517D-04 -0.290995D-04 -0.660039D-01  0.235592D-04  0.000000D+00
     19 -0.526034D-01 -0.475233D-03  0.000000D+00 -0.206967D-02 -0.353273D-01
     20 -0.475460D-03 -0.345901D+00 -0.647056D-04 -0.428112D-02 -0.128459D-01
     21  0.000000D+00 -0.496168D-04 -0.436685D-01 -0.226536D-05 -0.127846D-04
     22 -0.190893D-02  0.386325D-05  0.000000D+00 -0.442059D-02  0.409099D-02
     23  0.387945D-05  0.500036D-03  0.000000D+00  0.237549D-02  0.164355D-02
     24  0.000000D+00 -0.221297D-05 -0.107963D-02 -0.700207D-05  0.000000D+00
                6             7             8             9            10 
      6  0.809015D-01
      7  0.143146D-04  0.471428D+00
      8  0.163145D-04 -0.400206D-01  0.534262D+00
      9 -0.698336D-01  0.874705D-04 -0.328897D-04  0.809013D-01
     10  0.127701D-04 -0.278381D+00  0.216947D-01 -0.765474D-04  0.616223D+00
     11  0.138372D-04  0.828697D-01 -0.177217D+00  0.306046D-04  0.347411D-03
     12  0.336047D-01 -0.964887D-04  0.480676D-04 -0.660053D-01 -0.232717D-05
     13 -0.571406D-05 -0.997060D-01  0.475583D-01 -0.234821D-04 -0.278734D+00
     14 -0.317478D-04 -0.468748D-01  0.110782D+00 -0.143141D-05 -0.213733D-01
     15 -0.388674D-01  0.248468D-04 -0.209018D-05  0.499820D-01  0.784603D-04
     16 -0.221215D-04 -0.207057D-01  0.595005D-01 -0.708187D-05  0.525576D-01
     17  0.000000D+00  0.595005D-01 -0.878469D-01  0.328734D-04 -0.129376D+00
     18  0.499819D-01  0.538838D-05 -0.322223D-04 -0.388673D-01 -0.128672D-04
     19 -0.674058D-05 -0.444156D-02 -0.407128D-02 -0.250024D-05 -0.190894D-02
     20  0.000000D+00 -0.235579D-02  0.166445D-02 -0.495982D-05  0.394648D-05
     21 -0.185241D-02 -0.708469D-05  0.107076D-05  0.120707D-01  0.000000D+00
     22 -0.252006D-05 -0.194125D-02  0.352919D-01 -0.772199D-05 -0.526033D-01
     23  0.540565D-05  0.424580D-02 -0.129743D-01  0.000000D+00 -0.476672D-03
     24  0.120707D-01 -0.210498D-05  0.127391D-04 -0.185250D-02  0.000000D+00
               11            12            13            14            15 
     11  0.825390D+00
     12 -0.175876D-03  0.146508D+00
     13 -0.825479D-01  0.984852D-04  0.471702D+00
     14 -0.176882D+00  0.478472D-04  0.402320D-01  0.533986D+00
     15  0.311131D-04 -0.660039D-01 -0.910450D-04 -0.332016D-04  0.809010D-01
     16 -0.473247D-01  0.275175D-04 -0.118809D+00 -0.100394D-01 -0.134931D-04
     17 -0.599239D-01  0.141517D-04  0.942298D-02 -0.308727D+00 -0.121770D-04
     18  0.143218D-04  0.336038D-01 -0.138015D-04  0.167252D-04 -0.698338D-01
     19  0.396321D-05  0.000000D+00 -0.442043D-02  0.409093D-02  0.264160D-05
     20  0.500044D-03  0.000000D+00  0.237538D-02  0.164362D-02 -0.499099D-05
     21  0.224768D-05 -0.107963D-02  0.724917D-05  0.000000D+00  0.120711D-01
     22 -0.476788D-03  0.000000D+00 -0.206993D-02 -0.353274D-01  0.772838D-05
     23 -0.345901D+00  0.753405D-04 -0.428145D-02 -0.128458D-01  0.000000D+00
     24  0.612710D-04 -0.436684D-01  0.219158D-05  0.130592D-04 -0.185270D-02
               16            17            18            19            20 
     16  0.471441D+00
     17 -0.400291D-01  0.534247D+00
     18 -0.912578D-04  0.246333D-04  0.809010D-01
     19 -0.194147D-02  0.352920D-01  0.673786D-05  0.666941D-01
     20  0.424607D-02 -0.129743D-01  0.000000D+00  0.488207D-03  0.367977D+00
     21  0.218103D-05 -0.131264D-04 -0.185275D-02  0.000000D+00  0.727804D-04
     22 -0.444136D-02 -0.407119D-02  0.268933D-05  0.691376D-03 -0.123107D-05
     23 -0.235564D-02  0.166454D-02  0.541871D-05 -0.122107D-05 -0.634201D-04
     24  0.714754D-05  0.000000D+00  0.120710D-01  0.000000D+00  0.143957D-05
               21            22            23            24 
     21  0.275434D-01
     22  0.000000D+00  0.666940D-01
     23 -0.155925D-05  0.489817D-03  0.367977D+00
     24 -0.323184D-02  0.000000D+00 -0.846044D-04  0.275434D-01
 FormGI is forming the generalized inverse of G from B-inverse, IUseBI=4.
 Force constants in internal coordinates: 
                1             2             3             4             5 
      1  0.408377D+00
      2  0.406375D-01  0.408393D+00
      3  0.100796D-01  0.100799D-01  0.367978D+00
      4  0.507421D-01 -0.237241D-01 -0.187234D-02  0.408548D+00
      5 -0.606002D-02  0.954827D-01  0.706393D-03  0.507418D-01  0.408378D+00
      6  0.954827D-01 -0.605857D-02  0.706379D-03 -0.237242D-01  0.406376D-01
      7  0.706398D-03  0.706375D-03  0.634226D-04 -0.187235D-02  0.100797D-01
      8 -0.237249D-01  0.507412D-01 -0.187238D-02  0.107230D+00 -0.237248D-01
      9 -0.362203D-01 -0.362221D-01 -0.965360D-02 -0.344723D-01  0.407707D-01
     10  0.410172D-01 -0.479608D-02  0.482684D-02  0.176184D-01 -0.226505D-01
     11 -0.479697D-02  0.410182D-01  0.482676D-02  0.168540D-01 -0.181203D-01
     12 -0.273395D-01 -0.296740D-01  0.394907D-02 -0.235004D-01 -0.178880D-01
     13 -0.178881D-01  0.703527D-01  0.278735D-03 -0.235006D-01 -0.273395D-01
     14  0.407707D-01  0.407722D-01  0.119800D-02 -0.344723D-01 -0.362204D-01
     15 -0.226504D-01 -0.181210D-01 -0.599011D-03  0.176183D-01  0.410173D-01
     16 -0.181203D-01 -0.226512D-01 -0.598994D-03  0.168540D-01 -0.479690D-02
     17  0.703509D-01 -0.178872D-01  0.278842D-03  0.579728D-01 -0.296737D-01
     18 -0.296737D-01 -0.273416D-01  0.394895D-02  0.579728D-01  0.703510D-01
     19  0.105363D-04  0.185734D-04  0.336782D-05  0.270727D-04  0.879778D-05
     20  0.000000D+00 -0.409040D-05 -0.117807D-05  0.197497D-04  0.135346D-04
     21 -0.186308D-04 -0.105454D-04 -0.336701D-05  0.349023D-05  0.310606D-04
     22  0.408572D-05  0.000000D+00  0.117889D-05  0.110097D-04  0.251593D-04
     23 -0.271220D-05  0.305570D-04  0.145028D-05  0.000000D+00  0.290068D-05
     24 -0.872828D-05  0.313047D-04  0.142963D-05 -0.269452D-04 -0.106485D-04
     25 -0.139208D-04  0.250246D-04  0.000000D+00 -0.194270D-04  0.000000D+00
     26 -0.312696D-04  0.877775D-05 -0.142964D-05 -0.338394D-05  0.182061D-04
     27 -0.249690D-04  0.139496D-04  0.000000D+00 -0.110891D-04 -0.377187D-05
     28 -0.305392D-04  0.277235D-05 -0.145191D-05  0.000000D+00  0.309429D-04
                6             7             8             9            10 
      6  0.408394D+00
      7  0.100799D-01  0.367977D+00
      8  0.507413D-01 -0.187239D-02  0.408531D+00
      9  0.407721D-01  0.119800D-02 -0.344726D-01  0.135750D+00
     10 -0.181210D-01 -0.599008D-03  0.168541D-01 -0.678751D-01  0.104092D+00
     11 -0.226512D-01 -0.598995D-03  0.176185D-01 -0.678749D-01 -0.362173D-01
     12  0.703528D-01  0.278776D-03  0.579710D-01 -0.679058D-01  0.382915D-01
     13 -0.296741D-01  0.394901D-02  0.579709D-01 -0.733132D-02 -0.494849D-02
     14 -0.362220D-01 -0.965357D-02 -0.344725D-01  0.147243D-01 -0.736215D-02
     15 -0.479612D-02  0.482678D-02  0.168541D-01 -0.736214D-02  0.441072D-02
     16  0.410182D-01  0.482679D-02  0.176185D-01 -0.736220D-02  0.295143D-02
     17 -0.273416D-01  0.394896D-02 -0.234984D-01 -0.733178D-02  0.122799D-01
     18 -0.178872D-01  0.278818D-03 -0.234983D-01 -0.679055D-01  0.296144D-01
     19 -0.310263D-04 -0.143083D-05 -0.351118D-05 -0.263469D-04  0.144369D-04
     20 -0.251050D-04  0.000000D+00 -0.110517D-04 -0.148357D-04  0.163096D-04
     21 -0.874944D-05  0.143081D-05 -0.271050D-04  0.263534D-04 -0.204914D-04
     22 -0.135061D-04  0.000000D+00 -0.197610D-04  0.148424D-04  0.137057D-04
     23 -0.309275D-04 -0.146355D-05  0.000000D+00 -0.291582D-04  0.141455D-04
     24 -0.182643D-04 -0.329438D-05  0.335970D-05  0.161342D-05 -0.542925D-05
     25  0.376649D-05  0.104478D-05  0.110458D-04  0.557034D-05 -0.755202D-05
     26  0.106404D-04  0.329520D-05  0.269134D-04 -0.157787D-05 -0.379988D-05
     27  0.000000D+00 -0.104395D-05  0.194143D-04 -0.553483D-05 -0.203408D-05
     28 -0.283949D-05  0.146189D-05  0.000000D+00  0.291956D-04 -0.111933D-04
               11            12            13            14            15 
     11  0.104092D+00
     12  0.296143D-01  0.158622D+00
     13  0.122798D-01 -0.944349D-01  0.158622D+00
     14 -0.736220D-02 -0.733144D-02 -0.679056D-01  0.135750D+00
     15  0.295142D-02 -0.494840D-02  0.382913D-01 -0.678750D-01  0.104092D+00
     16  0.441078D-02  0.122798D-01  0.296143D-01 -0.678749D-01 -0.362173D-01
     17 -0.494812D-02  0.352304D-01 -0.241802D-01 -0.679056D-01  0.296144D-01
     18  0.382911D-01 -0.241801D-01  0.352302D-01 -0.733168D-02  0.122798D-01
     19  0.204871D-04 -0.733739D-05  0.148079D-04 -0.156976D-05  0.530129D-05
     20 -0.137081D-04 -0.138901D-04  0.102701D-04 -0.564855D-05  0.749441D-05
     21 -0.144391D-04 -0.351251D-04  0.778431D-05  0.160559D-05  0.368037D-05
     22 -0.163138D-04 -0.263419D-04  0.789316D-05  0.568444D-05  0.186237D-05
     23  0.111717D-04  0.111628D-04 -0.109795D-04  0.287195D-04 -0.137968D-04
     24  0.378138D-05 -0.146224D-04  0.704077D-05  0.265935D-04 -0.144929D-04
     25  0.201722D-05 -0.101918D-04  0.139288D-04  0.145778D-04 -0.157457D-04
     26  0.541225D-05 -0.763775D-05  0.350629D-04 -0.265866D-04  0.202581D-04
     27  0.753343D-05 -0.785397D-05  0.260523D-04 -0.145710D-04 -0.128124D-04
     28 -0.141613D-04 -0.198091D-04  0.195848D-04 -0.286823D-04  0.112460D-04
               16            17            18            19            20 
     16  0.104092D+00
     17  0.382912D-01  0.158621D+00
     18 -0.494815D-02 -0.944338D-01  0.158621D+00
     19 -0.369875D-05 -0.780149D-05  0.351281D-04  0.155481D-01
     20 -0.187968D-05 -0.793452D-05  0.263557D-04 -0.536131D-02  0.244635D-01
     21 -0.531880D-05 -0.148961D-04  0.739094D-05 -0.128459D-01  0.806339D-02
     22 -0.751305D-05 -0.103343D-04  0.139326D-04  0.806359D-02 -0.217615D-01
     23 -0.112676D-04 -0.195829D-04  0.198115D-04 -0.101568D-01 -0.792951D-03
     24 -0.202624D-04 -0.350578D-04  0.761923D-05  0.406568D-02  0.414964D-02
     25  0.128097D-04 -0.260383D-04  0.781256D-05  0.414965D-02  0.406302D-02
     26  0.144902D-04 -0.698908D-05  0.145351D-04 -0.136346D-02 -0.144757D-02
     27  0.157414D-04 -0.138860D-04  0.101274D-04 -0.144743D-02 -0.136095D-02
     28  0.137812D-04  0.109472D-04 -0.111969D-04  0.505120D-02 -0.431245D-02
               21            22            23            24            25 
     21  0.155481D-01
     22 -0.536132D-02  0.244639D-01
     23  0.505119D-02 -0.431270D-02  0.116614D-01
     24 -0.136344D-02 -0.144741D-02 -0.101569D-01  0.155482D-01
     25 -0.144756D-02 -0.136094D-02 -0.792960D-03 -0.536131D-02  0.244636D-01
     26  0.406557D-02  0.414968D-02  0.505122D-02 -0.128460D-01  0.806340D-02
     27  0.414969D-02  0.406320D-02 -0.431270D-02  0.806361D-02 -0.217615D-01
     28 -0.101567D-01 -0.793055D-03 -0.201468D-02  0.505119D-02 -0.431247D-02
               26            27            28 
     26  0.155481D-01
     27 -0.536134D-02  0.244639D-01
     28 -0.101567D-01 -0.793039D-03  0.116613D-01
 Leave Link  716 at Wed Dec 28 13:52:58 2022, MaxMem=  7516192768 cpu:               0.9 elap:               0.0
 (Enter /public/home/jackie_lijiaqi/g16/l103.exe)

 GradGradGradGradGradGradGradGradGradGradGradGradGradGradGradGradGradGrad
 Berny optimization.
 Red2BG is reusing G-inverse.
 Internal  Forces:  Max     0.000126453 RMS     0.000056144
 Search for a local minimum.
 Step number   1 out of a maximum of    2
 All quantities printed in internal units (Hartrees-Bohrs-Radians)
 Second derivative matrix not updated -- analytic derivatives used.
 ITU=  0
     Eigenvalues ---    0.01087   0.02046   0.04007   0.05289   0.05908
     Eigenvalues ---    0.12178   0.13039   0.19466   0.25974   0.27113
     Eigenvalues ---    0.29017   0.36664   0.36860   0.44589   0.44598
     Eigenvalues ---    0.51465   0.51909   0.58022
 Angle between quadratic step and forces=  63.16 degrees.
 Linear search not attempted -- first point.
 Iteration  1 RMS(Cart)=  0.00028826 RMS(Int)=  0.00000009
 Iteration  2 RMS(Cart)=  0.00000008 RMS(Int)=  0.00000003
 ITry= 1 IFail=0 DXMaxC= 7.18D-04 DCOld= 1.00D+10 DXMaxT= 3.00D-01 DXLimC= 3.00D+00 Rises=F
 Variable       Old X    -DE/DX   Delta X   Delta X   Delta X     New X
                                 (Linear)    (Quad)   (Total)
    R1        2.53037   0.00012   0.00000   0.00024   0.00024   2.53061
    R2        2.53036   0.00013   0.00000   0.00026   0.00026   2.53061
    R3        2.05131  -0.00000   0.00000  -0.00003  -0.00003   2.05127
    R4        2.50549  -0.00011   0.00000  -0.00027  -0.00027   2.50523
    R5        2.53037   0.00012   0.00000   0.00024   0.00024   2.53061
    R6        2.53036   0.00013   0.00000   0.00026   0.00026   2.53061
    R7        2.05131  -0.00000   0.00000  -0.00003  -0.00003   2.05127
    R8        2.50551  -0.00011   0.00000  -0.00028  -0.00028   2.50523
    A1        2.20888  -0.00002   0.00000  -0.00015  -0.00015   2.20874
    A2        2.03715   0.00001   0.00000   0.00008   0.00008   2.03722
    A3        2.03715   0.00001   0.00000   0.00007   0.00007   2.03722
    A4        2.03715   0.00001   0.00000   0.00007   0.00007   2.03722
    A5        2.03715   0.00001   0.00000   0.00007   0.00007   2.03722
    A6        2.20888  -0.00002   0.00000  -0.00015  -0.00015   2.20874
    A7        2.03715   0.00001   0.00000   0.00008   0.00008   2.03722
    A8        2.03715   0.00001   0.00000   0.00007   0.00007   2.03722
    A9        2.03715   0.00001   0.00000   0.00007   0.00007   2.03722
   A10        2.03715   0.00001   0.00000   0.00007   0.00007   2.03722
    D1       -0.00074   0.00001   0.00000   0.00074   0.00074  -0.00000
    D2        3.14136  -0.00000   0.00000   0.00023   0.00023   3.14159
    D3        0.00075  -0.00001   0.00000  -0.00075  -0.00075   0.00000
    D4       -3.14136   0.00000   0.00000  -0.00023  -0.00023  -3.14159
    D5        0.00000  -0.00000   0.00000  -0.00000  -0.00000   0.00000
    D6        0.00074  -0.00001   0.00000  -0.00074  -0.00074   0.00000
    D7       -3.14134   0.00000   0.00000  -0.00025  -0.00025  -3.14159
    D8       -0.00074   0.00001   0.00000   0.00074   0.00074  -0.00000
    D9        3.14134  -0.00000   0.00000   0.00025   0.00025   3.14159
   D10       -0.00000   0.00000   0.00000   0.00000   0.00000   0.00000
         Item               Value     Threshold  Converged?
 Maximum Force            0.000126     0.000450     YES
 RMS     Force            0.000056     0.000300     YES
 Maximum Displacement     0.000718     0.001800     YES
 RMS     Displacement     0.000288     0.001200     YES
 Predicted change in Energy=-1.147236D-07
 Optimization completed.
    -- Stationary point found.
                           ----------------------------
                           !   Optimized Parameters   !
                           ! (Angstroms and Degrees)  !
 --------------------------                            --------------------------
 ! Name  Definition              Value          Derivative Info.                !
 --------------------------------------------------------------------------------
 ! R1    R(1,2)                  1.339          -DE/DX =    0.0001              !
 ! R2    R(1,6)                  1.339          -DE/DX =    0.0001              !
 ! R3    R(1,7)                  1.0855         -DE/DX =    0.0                 !
 ! R4    R(2,3)                  1.3259         -DE/DX =   -0.0001              !
 ! R5    R(3,4)                  1.339          -DE/DX =    0.0001              !
 ! R6    R(4,5)                  1.339          -DE/DX =    0.0001              !
 ! R7    R(4,8)                  1.0855         -DE/DX =    0.0                 !
 ! R8    R(5,6)                  1.3259         -DE/DX =   -0.0001              !
 ! A1    A(2,1,6)              126.5597         -DE/DX =    0.0                 !
 ! A2    A(2,1,7)              116.7199         -DE/DX =    0.0                 !
 ! A3    A(6,1,7)              116.7203         -DE/DX =    0.0                 !
 ! A4    A(1,2,3)              116.7201         -DE/DX =    0.0                 !
 ! A5    A(2,3,4)              116.7202         -DE/DX =    0.0                 !
 ! A6    A(3,4,5)              126.5597         -DE/DX =    0.0                 !
 ! A7    A(3,4,8)              116.72           -DE/DX =    0.0                 !
 ! A8    A(5,4,8)              116.7203         -DE/DX =    0.0                 !
 ! A9    A(4,5,6)              116.7201         -DE/DX =    0.0                 !
 ! A10   A(1,6,5)              116.7201         -DE/DX =    0.0                 !
 ! D1    D(6,1,2,3)             -0.0427         -DE/DX =    0.0                 !
 ! D2    D(7,1,2,3)            179.9866         -DE/DX =    0.0                 !
 ! D3    D(2,1,6,5)              0.0427         -DE/DX =    0.0                 !
 ! D4    D(7,1,6,5)           -179.9865         -DE/DX =    0.0                 !
 ! D5    D(1,2,3,4)              0.0001         -DE/DX =    0.0                 !
 ! D6    D(2,3,4,5)              0.0424         -DE/DX =    0.0                 !
 ! D7    D(2,3,4,8)           -179.9854         -DE/DX =    0.0                 !
 ! D8    D(3,4,5,6)             -0.0424         -DE/DX =    0.0                 !
 ! D9    D(8,4,5,6)            179.9855         -DE/DX =    0.0                 !
 ! D10   D(4,5,6,1)             -0.0002         -DE/DX =    0.0                 !
 --------------------------------------------------------------------------------
 GradGradGradGradGradGradGradGradGradGradGradGradGradGradGradGradGradGrad

 Leave Link  103 at Wed Dec 28 13:52:58 2022, MaxMem=  7516192768 cpu:               1.0 elap:               0.1
 (Enter /public/home/jackie_lijiaqi/g16/l9999.exe)

 ----------------------------------------------------------------------

 Electric dipole moment (input orientation):
 (Debye = 10**-18 statcoulomb cm , SI units = C m)
                  (au)            (Debye)         (10**-30 SI)
   Tot        0.776410D-03      0.197344D-02      0.658268D-02
   x          0.000000D+00      0.000000D+00      0.000000D+00
   y          0.000000D+00      0.000000D+00      0.000000D+00
   z         -0.776410D-03     -0.197344D-02     -0.658268D-02

 Dipole polarizability, Alpha (input orientation).
 (esu units = cm**3 , SI units = C**2 m**2 J**-1)
 Alpha(0;0):
               (au)            (10**-24 esu)      (10**-40 SI)
   iso        0.392403D+02      0.581481D+01      0.646985D+01
   aniso      0.297344D+02      0.440618D+01      0.490254D+01
   xx         0.442193D+02      0.655262D+01      0.729077D+01
   yx         0.148335D-01      0.219810D-02      0.244571D-02
   yy         0.533676D+02      0.790826D+01      0.879913D+01
   zx        -0.113444D-03     -0.168106D-04     -0.187044D-04
   zy        -0.363824D-03     -0.539131D-04     -0.599864D-04
   zz         0.201340D+02      0.298355D+01      0.331964D+01

 ----------------------------------------------------------------------

 Dipole orientation:
     6         -0.00215067          2.39056088         -0.18273063
     7          2.25976487          1.25648938         -0.16296701
     7          2.26383423         -1.24900066         -0.16405692
     6          0.00561846         -2.39040237         -0.18481385
     7         -2.25627183         -1.25633563         -0.20608507
     7         -2.26034300          1.24916732         -0.20499729
     1         -0.00548164          4.44186598         -0.18140969
     1          0.00895335         -4.44170798         -0.18524045

 Electric dipole moment (dipole orientation):
 (Debye = 10**-18 statcoulomb cm , SI units = C m)
                  (au)            (Debye)         (10**-30 SI)
   Tot        0.776444D-03      0.197352D-02      0.658296D-02
   x          0.000000D+00      0.000000D+00      0.000000D+00
   y          0.000000D+00      0.000000D+00      0.000000D+00
   z          0.776444D-03      0.197352D-02      0.658296D-02

 Dipole polarizability, Alpha (dipole orientation).
 (esu units = cm**3 , SI units = C**2 m**2 J**-1)
 Alpha(0;0):
               (au)            (10**-24 esu)      (10**-40 SI)
   iso        0.392403D+02      0.581481D+01      0.646985D+01
   aniso      0.297344D+02      0.440618D+01      0.490254D+01
   xx         0.442172D+02      0.655231D+01      0.729043D+01
   yx        -0.149519D-01     -0.221564D-02     -0.246524D-02
   yy         0.533676D+02      0.790826D+01      0.879913D+01
   zx         0.223908D+00      0.331798D-01      0.369175D-01
   zy         0.147695D-01      0.218861D-02      0.243516D-02
   zz         0.201361D+02      0.298386D+01      0.331999D+01

 ----------------------------------------------------------------------
 Unable to Open any file for archive entry.
 1\1\GINC-NODE751\Freq\RB3LYP\6-31G(d)\C2H2N4\JACKIE_LIJIAQI\28-Dec-202
 2\0\\#P Geom=AllCheck Guess=TCheck SCRF=Check GenChk RB3LYP/6-31G(d) F
 req\\$$$$Singlemol####0????\\0,1\C,-0.0020392901,-1.2649857712,0.09726
 34379\N,1.1949616543,-0.6648632922,0.0976522952\N,1.1971124461,0.66098
 50671,0.0976397782\C,0.0020669407,1.2649912747,0.0972414007\N,-1.19492
 80582,0.6648716803,0.0976504202\N,-1.1970798137,-0.6609835119,0.097664
 0582\H,-0.0037977087,-2.3504898947,0.0970468884\H,0.0038318296,2.35049
 54478,0.0969847212\\Version=ES64L-G16RevC.01\State=1-A\HF=-296.3333582
 \RMSD=4.541e-09\RMSF=9.524e-05\ZeroPoint=0.0515491\Thermal=0.0557672\E
 Tot=-296.277591\HTot=-296.2766468\GTot=-296.3092723\Dipole=0.0000072,-
 0.0000004,-0.0007764\DipoleDeriv=-0.1165626,0.0010738,0.0000027,0.0010
 781,0.5473734,0.0002913,0.0000026,0.0001319,0.3596021,0.0126721,-0.127
 7126,0.0001466,0.3142186,-0.2591729,-0.0001009,0.0000757,-0.0002114,-0
 .2284547,0.0120619,0.1268323,0.0001436,-0.3151,-0.2585665,0.0001034,0.
 0000839,0.0002138,-0.2284555,-0.1165621,0.0010804,0.0000018,0.0010779,
 0.5473731,-0.000299,0.0000018,-0.0001449,0.3596024,0.0126649,-0.127719
 9,-0.0001454,0.3142163,-0.2591731,0.0001008,-0.0000852,0.0002152,-0.22
 84577,0.0120569,0.1268402,-0.0001493,-0.3150967,-0.2585653,-0.0000976,
 -0.0000789,-0.0002124,-0.2284573,0.0918345,-0.000196,0.,-0.0001971,-0.
 0296346,-0.0000488,0.0000002,0.0000473,0.0973103,0.0918346,-0.0001982,
 0.0000001,-0.0001971,-0.029634,0.0000508,-0.0000001,-0.0000394,0.09731
 04\Polar=44.2192524,0.0148335,53.3675911,-0.0001134,-0.0003638,20.1339
 705\Quadrupole=-6.5408221,4.8965351,1.644287,0.0185626,0.0000382,-0.00
 00529\PG=C01 [X(C2H2N4)]\NImag=0\\0.61622217,0.00033111,0.82539020,-0.
 00000211,0.00015694,0.14650754,-0.27871972,-0.08253969,-0.00009511,0.4
 7168780,-0.02136450,-0.17687830,-0.00004504,0.04022297,0.53400041,-0.0
 0007747,-0.00002805,-0.06600539,0.00008748,0.00002418,0.08090147,0.052
 55792,-0.04732534,-0.00002634,-0.11880965,-0.01003944,0.00001431,0.471
 42765,-0.12937670,-0.05992438,-0.00001099,0.00942325,-0.30874517,0.000
 01631,-0.04002064,0.53426164,0.00001595,-0.00001217,0.03360479,0.00001
 391,-0.00001240,-0.06983363,0.00008747,-0.00003289,0.08090129,-0.11028
 249,0.00017026,0.00000039,0.05313012,0.12900950,0.00001277,-0.27838145
 ,0.02169467,-0.00007655,0.61622276,0.00017006,-0.00546917,0.00002248,0
 .04695818,-0.06049649,0.00001384,0.08286975,-0.17721717,0.00003060,0.0
 0034741,0.82539016,0.00000030,-0.00002324,-0.03695876,-0.00002765,0.00
 001299,0.03360470,-0.00009649,0.00004807,-0.06600529,-0.00000233,-0.00
 017588,0.14650750,0.05313000,0.04695770,0.00002612,-0.02109257,-0.0597
 1711,-0.00000571,-0.09970597,0.04755834,-0.00002348,-0.27873426,-0.082
 54786,0.00009849,0.47170185,0.12900891,-0.06049629,-0.00001224,-0.0597
 1705,-0.08745994,-0.00003175,-0.04687482,0.11078190,-0.00000143,-0.021
 37326,-0.17688234,0.00004785,0.04023202,0.53398596,-0.00001621,-0.0000
 1256,0.03360383,0.00000707,0.00003351,-0.03886740,0.00002485,-0.000002
 09,0.04998198,0.00007846,0.00003111,-0.06600389,-0.00009104,-0.0000332
 0,0.08090095,-0.27839557,0.08287733,0.00009711,-0.09970570,-0.04687507
 ,-0.00002212,-0.02070569,0.05950046,-0.00000708,0.05255760,-0.04732471
 ,0.00002752,-0.11880869,-0.01003938,-0.00001349,0.47144088,0.02170270,
 -0.17722081,-0.00004567,0.04755798,0.11078184,0.00000017,0.05950048,-0
 .08784694,0.00003287,-0.12937586,-0.05992386,0.00001415,0.00942298,-0.
 30872708,-0.00001218,-0.04002906,0.53424656,0.00007955,-0.00002910,-0.
 06600388,0.00002356,0.00000040,0.04998193,0.00000539,-0.00003222,-0.03
 886734,-0.00001287,0.00001432,0.03360381,-0.00001380,0.00001673,-0.069
 83381,-0.00009126,0.00002463,0.08090102,-0.05260337,-0.00047523,-0.000
 00005,-0.00206967,-0.03532733,-0.00000674,-0.00444156,-0.00407128,-0.0
 0000250,-0.00190894,0.00000396,0.,-0.00442043,0.00409093,0.00000264,-0
 .00194147,0.03529196,0.00000674,0.06669406,-0.00047546,-0.34590127,-0.
 00006471,-0.00428112,-0.01284590,-0.00000011,-0.00235579,0.00166445,-0
 .00000496,0.00000395,0.00050004,0.00000072,0.00237538,0.00164362,-0.00
 000499,0.00424607,-0.01297426,-0.00000017,0.00048821,0.36797674,0.,-0.
 00004962,-0.04366849,-0.00000227,-0.00001278,-0.00185241,-0.00000708,0
 .00000107,0.01207071,0.00000002,0.00000225,-0.00107963,0.00000725,0.00
 000099,0.01207105,0.00000218,-0.00001313,-0.00185275,-0.00000008,0.000
 07278,0.02754336,-0.00190893,0.00000386,0.,-0.00442059,0.00409099,-0.0
 0000252,-0.00194125,0.03529189,-0.00000772,-0.05260333,-0.00047679,0.0
 0000015,-0.00206993,-0.03532736,0.00000773,-0.00444136,-0.00407119,0.0
 0000269,0.00069138,-0.00000123,-0.00000002,0.06669402,0.00000388,0.000
 50004,-0.00000077,0.00237549,0.00164355,0.00000541,0.00424580,-0.01297
 432,0.00000038,-0.00047667,-0.34590116,0.00007534,-0.00428145,-0.01284
 582,0.00000039,-0.00235564,0.00166454,0.00000542,-0.00000122,-0.000063
 42,-0.00000156,0.00048982,0.36797659,-0.00000001,-0.00000221,-0.001079
 63,-0.00000700,-0.00000084,0.01207074,-0.00000210,0.00001274,-0.001852
 50,0.00000011,0.00006127,-0.04366844,0.00000219,0.00001306,-0.00185270
 ,0.00000715,-0.00000085,0.01207102,-0.00000002,0.00000144,-0.00323184,
 -0.00000031,-0.00008460,0.02754336\\-0.00000192,0.00014891,-0.00003002
 ,-0.00010261,-0.00017751,0.00001220,-0.00010313,0.00017736,0.00001213,
 -0.00000211,-0.00014857,-0.00002774,0.00010506,0.00018020,0.00001206,0
 .00010439,-0.00018045,0.00001227,0.00000023,-0.00000367,0.00000512,0.0
 0000008,0.00000372,0.00000397\\\@
 The archive entry for this job was punched.


 "PERFECTION IS NOT AN ACCIDENT"
         --  EAGLE ELECTRIC MANUFACTURING CO.,INC. NY
 Job cpu time:       0 days  0 hours  3 minutes 35.1 seconds.
 Elapsed time:       0 days  0 hours  0 minutes  8.4 seconds.
 File lengths (MBytes):  RWF=     13 Int=      0 D2E=      0 Chk=      2 Scr=      1
 Normal termination of Gaussian 16 at Wed Dec 28 13:52:58 2022.
