 Entering Gaussian System, Link 0=g16
 Initial command:
 /public3/home/scg9909/software-scg9909/g16/l1.exe "/public3/home/scg9909/tmp/Gau-65551.inp" -scrdir="/public3/home/scg9909/tmp/"
 Entering Link 1 = /public3/home/scg9909/software-scg9909/g16/l1.exe PID=     65552.
  
 Copyright (c) 1988-2019, Gaussian, Inc.  All Rights Reserved.
  
 This is part of the Gaussian(R) 16 program.  It is based on
 the Gaussian(R) 09 system (copyright 2009, Gaussian, Inc.),
 the Gaussian(R) 03 system (copyright 2003, Gaussian, Inc.),
 the Gaussian(R) 98 system (copyright 1998, Gaussian, Inc.),
 the Gaussian(R) 94 system (copyright 1995, Gaussian, Inc.),
 the Gaussian 92(TM) system (copyright 1992, Gaussian, Inc.),
 the Gaussian 90(TM) system (copyright 1990, Gaussian, Inc.),
 the Gaussian 88(TM) system (copyright 1988, Gaussian, Inc.),
 the Gaussian 86(TM) system (copyright 1986, Carnegie Mellon
 University), and the Gaussian 82(TM) system (copyright 1983,
 Carnegie Mellon University). Gaussian is a federally registered
 trademark of Gaussian, Inc.
  
 This software contains proprietary and confidential information,
 including trade secrets, belonging to Gaussian, Inc.
  
 This software is provided under written license and may be
 used, copied, transmitted, or stored only in accord with that
 written license.
  
 The following legend is applicable only to US Government
 contracts under FAR:
  
                    RESTRICTED RIGHTS LEGEND
  
 Use, reproduction and disclosure by the US Government is
 subject to restrictions as set forth in subparagraphs (a)
 and (c) of the Commercial Computer Software - Restricted
 Rights clause in FAR 52.227-19.
  
 Gaussian, Inc.
 340 Quinnipiac St., Bldg. 40, Wallingford CT 06492
  
  
 ---------------------------------------------------------------
 Warning -- This program may not be used in any manner that
 competes with the business of Gaussian, Inc. or will provide
 assistance to any competitor of Gaussian, Inc.  The licensee
 of this program is prohibited from giving any competitor of
 Gaussian, Inc. access to this program.  By using this program,
 the user acknowledges that Gaussian, Inc. is engaged in the
 business of creating and licensing software in the field of
 computational chemistry and represents and warrants to the
 licensee that it is not a competitor of Gaussian, Inc. and that
 it will not use this program in any manner prohibited above.
 ---------------------------------------------------------------
  

 Cite this work as:
 Gaussian 16, Revision C.01,
 M. J. Frisch, G. W. Trucks, H. B. Schlegel, G. E. Scuseria, 
 M. A. Robb, J. R. Cheeseman, G. Scalmani, V. Barone, 
 G. A. Petersson, H. Nakatsuji, X. Li, M. Caricato, A. V. Marenich, 
 J. Bloino, B. G. Janesko, R. Gomperts, B. Mennucci, H. P. Hratchian, 
 J. V. Ortiz, A. F. Izmaylov, J. L. Sonnenberg, D. Williams-Young, 
 F. Ding, F. Lipparini, F. Egidi, J. Goings, B. Peng, A. Petrone, 
 T. Henderson, D. Ranasinghe, V. G. Zakrzewski, J. Gao, N. Rega, 
 G. Zheng, W. Liang, M. Hada, M. Ehara, K. Toyota, R. Fukuda, 
 J. Hasegawa, M. Ishida, T. Nakajima, Y. Honda, O. Kitao, H. Nakai, 
 T. Vreven, K. Throssell, J. A. Montgomery, Jr., J. E. Peralta, 
 F. Ogliaro, M. J. Bearpark, J. J. Heyd, E. N. Brothers, K. N. Kudin, 
 V. N. Staroverov, T. A. Keith, R. Kobayashi, J. Normand, 
 K. Raghavachari, A. P. Rendell, J. C. Burant, S. S. Iyengar, 
 J. Tomasi, M. Cossi, J. M. Millam, M. Klene, C. Adamo, R. Cammi, 
 J. W. Ochterski, R. L. Martin, K. Morokuma, O. Farkas, 
 J. B. Foresman, and D. J. Fox, Gaussian, Inc., Wallingford CT, 2019.
 
 ******************************************
 Gaussian 16:  ES64L-G16RevC.01  3-Jul-2019
                 9-Apr-2024 
 ******************************************
 %nprocshared=28
 Will use up to   28 processors via shared memory.
 %mem=56GB
 ---------------------------------
 #p opt freq b3lyp/6-31g* em=gd3bj
 ---------------------------------
 1/18=20,19=15,26=3,38=1/1,3;
 2/9=110,12=2,17=6,18=5,40=1/2;
 3/5=1,6=6,7=1,11=2,25=1,30=1,71=1,74=-5,124=41/1,2,3;
 4//1;
 5/5=2,38=5/2;
 6/7=2,8=2,9=2,10=2,28=1/1;
 7//1,2,3,16;
 1/18=20,19=15,26=3/3(2);
 2/9=110/2;
 99//99;
 2/9=110/2;
 3/5=1,6=6,7=1,11=2,25=1,30=1,71=1,74=-5,124=41/1,2,3;
 4/5=5,16=3,69=1/1;
 5/5=2,38=5/2;
 7//1,2,3,16;
 1/18=20,19=15,26=3/3(-5);
 2/9=110/2;
 6/7=2,8=2,9=2,10=2,19=2,28=1/1;
 99/9=1/99;
 Leave Link    1 at Tue Apr  9 11:54:22 2024, MaxMem=  7516192768 cpu:               0.7 elap:               0.0
 (Enter /public3/home/scg9909/software-scg9909/g16/l101.exe)
 ----------------------
 $$$$Singlemol####0????
 ----------------------
 Symbolic Z-matrix:
 Charge =  0 Multiplicity = 1
 O                    -1.4018    2.4888   -0.5464 
 C                    -1.113     1.3121   -0.418 
 C                    -2.0702    0.1906   -0.0526 
 C                    -1.1328   -0.8865    0.5302 
 C                     0.1151   -0.7102   -0.3088 
 C                     1.4987   -1.0055    0.2731 
 C                     2.2192    0.3079    0.0502 
 C                     1.3684    1.2547   -0.3658 
 N                     0.1308    0.7167   -0.5172 
 H                    -2.799     0.5247    0.6896 
 H                    -2.5768   -0.1581   -0.9576 
 H                    -1.5551   -1.8927    0.4618 
 H                    -0.9331   -0.6675    1.5865 
 H                    -0.0076   -1.1893   -1.2894 
 H                     1.463    -1.2511    1.339 
 H                     1.9894   -1.8225   -0.2643 
 H                     3.2593    0.4746    0.2897 
 H                     1.5454    2.3134   -0.5 
 
 ITRead=  0  0  0  0  0  0  0  0  0  0  0  0  0  0  0  0  0  0
 MicOpt= -1 -1 -1 -1 -1 -1 -1 -1 -1 -1 -1 -1 -1 -1 -1 -1 -1 -1
 NAtoms=     18 NQM=       18 NQMF=       0 NMMI=      0 NMMIF=      0
                NMic=       0 NMicF=      0.
                    Isotopes and Nuclear Properties:
 (Nuclear quadrupole moments (NQMom) in fm**2, nuclear magnetic moments (NMagM)
  in nuclear magnetons)

  Atom         1           2           3           4           5           6           7           8           9          10
 IAtWgt=          16          12          12          12          12          12          12          12          14           1
 AtmWgt=  15.9949146  12.0000000  12.0000000  12.0000000  12.0000000  12.0000000  12.0000000  12.0000000  14.0030740   1.0078250
 NucSpn=           0           0           0           0           0           0           0           0           2           1
 AtZEff=  -0.0000000  -0.0000000  -0.0000000  -0.0000000  -0.0000000  -0.0000000  -0.0000000  -0.0000000  -0.0000000  -0.0000000
 NQMom=    0.0000000   0.0000000   0.0000000   0.0000000   0.0000000   0.0000000   0.0000000   0.0000000   2.0440000   0.0000000
 NMagM=    0.0000000   0.0000000   0.0000000   0.0000000   0.0000000   0.0000000   0.0000000   0.0000000   0.4037610   2.7928460
 AtZNuc=   8.0000000   6.0000000   6.0000000   6.0000000   6.0000000   6.0000000   6.0000000   6.0000000   7.0000000   1.0000000

  Atom        11          12          13          14          15          16          17          18
 IAtWgt=           1           1           1           1           1           1           1           1
 AtmWgt=   1.0078250   1.0078250   1.0078250   1.0078250   1.0078250   1.0078250   1.0078250   1.0078250
 NucSpn=           1           1           1           1           1           1           1           1
 AtZEff=  -0.0000000  -0.0000000  -0.0000000  -0.0000000  -0.0000000  -0.0000000  -0.0000000  -0.0000000
 NQMom=    0.0000000   0.0000000   0.0000000   0.0000000   0.0000000   0.0000000   0.0000000   0.0000000
 NMagM=    2.7928460   2.7928460   2.7928460   2.7928460   2.7928460   2.7928460   2.7928460   2.7928460
 AtZNuc=   1.0000000   1.0000000   1.0000000   1.0000000   1.0000000   1.0000000   1.0000000   1.0000000
 Leave Link  101 at Tue Apr  9 11:54:22 2024, MaxMem=  7516192768 cpu:               3.6 elap:               0.1
 (Enter /public3/home/scg9909/software-scg9909/g16/l103.exe)

 GradGradGradGradGradGradGradGradGradGradGradGradGradGradGradGradGradGrad
 Berny optimization.
 Initialization pass.
                           ----------------------------
                           !    Initial Parameters    !
                           ! (Angstroms and Degrees)  !
 --------------------------                            --------------------------
 ! Name  Definition              Value          Derivative Info.                !
 --------------------------------------------------------------------------------
 ! R1    R(1,2)                  1.2184         estimate D2E/DX2                !
 ! R2    R(2,3)                  1.519          estimate D2E/DX2                !
 ! R3    R(2,9)                  1.3825         estimate D2E/DX2                !
 ! R4    R(3,4)                  1.5422         estimate D2E/DX2                !
 ! R5    R(3,10)                 1.0925         estimate D2E/DX2                !
 ! R6    R(3,11)                 1.0942         estimate D2E/DX2                !
 ! R7    R(4,5)                  1.514          estimate D2E/DX2                !
 ! R8    R(4,12)                 1.0934         estimate D2E/DX2                !
 ! R9    R(4,13)                 1.0971         estimate D2E/DX2                !
 ! R10   R(5,6)                  1.5298         estimate D2E/DX2                !
 ! R11   R(5,9)                  1.4421         estimate D2E/DX2                !
 ! R12   R(5,14)                 1.0983         estimate D2E/DX2                !
 ! R13   R(6,7)                  1.5145         estimate D2E/DX2                !
 ! R14   R(6,15)                 1.0944         estimate D2E/DX2                !
 ! R15   R(6,16)                 1.0941         estimate D2E/DX2                !
 ! R16   R(7,8)                  1.3392         estimate D2E/DX2                !
 ! R17   R(7,17)                 1.0803         estimate D2E/DX2                !
 ! R18   R(8,9)                  1.3579         estimate D2E/DX2                !
 ! R19   R(8,18)                 1.0818         estimate D2E/DX2                !
 ! A1    A(1,2,3)              126.0866         estimate D2E/DX2                !
 ! A2    A(1,2,9)              128.4334         estimate D2E/DX2                !
 ! A3    A(3,2,9)              105.4388         estimate D2E/DX2                !
 ! A4    A(2,3,4)              102.9157         estimate D2E/DX2                !
 ! A5    A(2,3,10)             110.9764         estimate D2E/DX2                !
 ! A6    A(2,3,11)             109.1517         estimate D2E/DX2                !
 ! A7    A(4,3,10)             111.2423         estimate D2E/DX2                !
 ! A8    A(4,3,11)             111.8017         estimate D2E/DX2                !
 ! A9    A(10,3,11)            110.5168         estimate D2E/DX2                !
 ! A10   A(3,4,5)              102.1367         estimate D2E/DX2                !
 ! A11   A(3,4,12)             112.6013         estimate D2E/DX2                !
 ! A12   A(3,4,13)             109.5765         estimate D2E/DX2                !
 ! A13   A(5,4,12)             113.0069         estimate D2E/DX2                !
 ! A14   A(5,4,13)             111.117          estimate D2E/DX2                !
 ! A15   A(12,4,13)            108.3151         estimate D2E/DX2                !
 ! A16   A(4,5,6)              120.8111         estimate D2E/DX2                !
 ! A17   A(4,5,9)              101.7867         estimate D2E/DX2                !
 ! A18   A(4,5,14)             110.6038         estimate D2E/DX2                !
 ! A19   A(6,5,9)              103.6578         estimate D2E/DX2                !
 ! A20   A(6,5,14)             110.8838         estimate D2E/DX2                !
 ! A21   A(9,5,14)             107.6872         estimate D2E/DX2                !
 ! A22   A(5,6,7)              101.94           estimate D2E/DX2                !
 ! A23   A(5,6,15)             112.5999         estimate D2E/DX2                !
 ! A24   A(5,6,16)             111.2816         estimate D2E/DX2                !
 ! A25   A(7,6,15)             110.6995         estimate D2E/DX2                !
 ! A26   A(7,6,16)             111.2176         estimate D2E/DX2                !
 ! A27   A(15,6,16)            108.9919         estimate D2E/DX2                !
 ! A28   A(6,7,8)              110.8913         estimate D2E/DX2                !
 ! A29   A(6,7,17)             124.0026         estimate D2E/DX2                !
 ! A30   A(8,7,17)             124.8532         estimate D2E/DX2                !
 ! A31   A(7,8,9)              109.4841         estimate D2E/DX2                !
 ! A32   A(7,8,18)             128.7945         estimate D2E/DX2                !
 ! A33   A(9,8,18)             121.5361         estimate D2E/DX2                !
 ! A34   A(2,9,5)              113.9508         estimate D2E/DX2                !
 ! A35   A(2,9,8)              129.8891         estimate D2E/DX2                !
 ! A36   A(5,9,8)              112.6943         estimate D2E/DX2                !
 ! D1    D(1,2,3,4)           -157.3124         estimate D2E/DX2                !
 ! D2    D(1,2,3,10)           -38.2331         estimate D2E/DX2                !
 ! D3    D(1,2,3,11)            83.806          estimate D2E/DX2                !
 ! D4    D(9,2,3,4)             20.5078         estimate D2E/DX2                !
 ! D5    D(9,2,3,10)           139.5871         estimate D2E/DX2                !
 ! D6    D(9,2,3,11)           -98.3738         estimate D2E/DX2                !
 ! D7    D(1,2,9,5)           -179.9137         estimate D2E/DX2                !
 ! D8    D(1,2,9,8)             22.9444         estimate D2E/DX2                !
 ! D9    D(3,2,9,5)              2.3351         estimate D2E/DX2                !
 ! D10   D(3,2,9,8)           -154.8068         estimate D2E/DX2                !
 ! D11   D(2,3,4,5)            -34.4667         estimate D2E/DX2                !
 ! D12   D(2,3,4,12)          -155.9707         estimate D2E/DX2                !
 ! D13   D(2,3,4,13)            83.4116         estimate D2E/DX2                !
 ! D14   D(10,3,4,5)          -153.3607         estimate D2E/DX2                !
 ! D15   D(10,3,4,12)           85.1354         estimate D2E/DX2                !
 ! D16   D(10,3,4,13)          -35.4824         estimate D2E/DX2                !
 ! D17   D(11,3,4,5)            82.5496         estimate D2E/DX2                !
 ! D18   D(11,3,4,12)          -38.9544         estimate D2E/DX2                !
 ! D19   D(11,3,4,13)         -159.5721         estimate D2E/DX2                !
 ! D20   D(3,4,5,6)            149.1171         estimate D2E/DX2                !
 ! D21   D(3,4,5,9)             35.2076         estimate D2E/DX2                !
 ! D22   D(3,4,5,14)           -78.9987         estimate D2E/DX2                !
 ! D23   D(12,4,5,6)           -89.6587         estimate D2E/DX2                !
 ! D24   D(12,4,5,9)           156.4318         estimate D2E/DX2                !
 ! D25   D(12,4,5,14)           42.2255         estimate D2E/DX2                !
 ! D26   D(13,4,5,6)            32.3444         estimate D2E/DX2                !
 ! D27   D(13,4,5,9)           -81.5651         estimate D2E/DX2                !
 ! D28   D(13,4,5,14)          164.2286         estimate D2E/DX2                !
 ! D29   D(4,5,6,7)           -123.9009         estimate D2E/DX2                !
 ! D30   D(4,5,6,15)            -5.2575         estimate D2E/DX2                !
 ! D31   D(4,5,6,16)           117.456          estimate D2E/DX2                !
 ! D32   D(9,5,6,7)            -10.9666         estimate D2E/DX2                !
 ! D33   D(9,5,6,15)           107.6768         estimate D2E/DX2                !
 ! D34   D(9,5,6,16)          -129.6098         estimate D2E/DX2                !
 ! D35   D(14,5,6,7)           104.3333         estimate D2E/DX2                !
 ! D36   D(14,5,6,15)         -137.0233         estimate D2E/DX2                !
 ! D37   D(14,5,6,16)          -14.3098         estimate D2E/DX2                !
 ! D38   D(4,5,9,2)            -24.502          estimate D2E/DX2                !
 ! D39   D(4,5,9,8)            136.6495         estimate D2E/DX2                !
 ! D40   D(6,5,9,2)           -150.6004         estimate D2E/DX2                !
 ! D41   D(6,5,9,8)             10.5512         estimate D2E/DX2                !
 ! D42   D(14,5,9,2)            91.8486         estimate D2E/DX2                !
 ! D43   D(14,5,9,8)          -106.9998         estimate D2E/DX2                !
 ! D44   D(5,6,7,8)              8.8992         estimate D2E/DX2                !
 ! D45   D(5,6,7,17)          -176.6402         estimate D2E/DX2                !
 ! D46   D(15,6,7,8)          -111.0876         estimate D2E/DX2                !
 ! D47   D(15,6,7,17)           63.373          estimate D2E/DX2                !
 ! D48   D(16,6,7,8)           127.5878         estimate D2E/DX2                !
 ! D49   D(16,6,7,17)          -57.9515         estimate D2E/DX2                !
 ! D50   D(6,7,8,9)             -2.8529         estimate D2E/DX2                !
 ! D51   D(6,7,8,18)           172.1849         estimate D2E/DX2                !
 ! D52   D(17,7,8,9)          -177.2567         estimate D2E/DX2                !
 ! D53   D(17,7,8,18)           -2.2189         estimate D2E/DX2                !
 ! D54   D(7,8,9,2)            152.2005         estimate D2E/DX2                !
 ! D55   D(7,8,9,5)             -5.1685         estimate D2E/DX2                !
 ! D56   D(18,8,9,2)           -23.2627         estimate D2E/DX2                !
 ! D57   D(18,8,9,5)           179.3683         estimate D2E/DX2                !
 --------------------------------------------------------------------------------
 Trust Radius=3.00D-01 FncErr=1.00D-07 GrdErr=1.00D-06 EigMax=2.50D+02 EigMin=1.00D-04
 Number of steps in this run=    108 maximum allowed number of steps=    108.
 GradGradGradGradGradGradGradGradGradGradGradGradGradGradGradGradGradGrad

 Leave Link  103 at Tue Apr  9 11:54:22 2024, MaxMem=  7516192768 cpu:               0.1 elap:               0.0
 (Enter /public3/home/scg9909/software-scg9909/g16/l202.exe)
                          Input orientation:                          
 ---------------------------------------------------------------------
 Center     Atomic      Atomic             Coordinates (Angstroms)
 Number     Number       Type             X           Y           Z
 ---------------------------------------------------------------------
      1          8           0       -1.401800    2.488800   -0.546400
      2          6           0       -1.113000    1.312100   -0.418000
      3          6           0       -2.070200    0.190600   -0.052600
      4          6           0       -1.132800   -0.886500    0.530200
      5          6           0        0.115100   -0.710200   -0.308800
      6          6           0        1.498700   -1.005500    0.273100
      7          6           0        2.219200    0.307900    0.050200
      8          6           0        1.368400    1.254700   -0.365800
      9          7           0        0.130800    0.716700   -0.517200
     10          1           0       -2.799000    0.524700    0.689600
     11          1           0       -2.576800   -0.158100   -0.957600
     12          1           0       -1.555100   -1.892700    0.461800
     13          1           0       -0.933100   -0.667500    1.586500
     14          1           0       -0.007600   -1.189300   -1.289400
     15          1           0        1.463000   -1.251100    1.339000
     16          1           0        1.989400   -1.822500   -0.264300
     17          1           0        3.259300    0.474600    0.289700
     18          1           0        1.545400    2.313400   -0.500000
 ---------------------------------------------------------------------
                    Distance matrix (angstroms):
                    1          2          3          4          5
     1  O    0.000000
     2  C    1.218407   0.000000
     3  C    2.443833   1.519049   0.000000
     4  C    3.553038   2.394435   1.542245   0.000000
     5  C    3.548386   2.368513   2.377523   1.514020   0.000000
     6  C    4.614609   3.559476   3.778066   2.646706   1.529758
     7  C    4.268946   3.511579   4.292235   3.590668   2.364877
     8  C    3.038030   2.482613   3.613084   3.412265   2.331275
     9  N    2.343086   1.382527   2.310202   2.294337   1.442124
    10  H    2.708792   2.165496   1.092535   2.189319   3.318698
    11  H    2.925028   2.143681   1.094194   2.197556   2.823487
    12  H    4.498612   3.352647   2.206824   1.093368   2.186710
    13  H    3.838121   2.822977   2.171631   1.097092   2.166266
    14  H    4.003032   2.870235   2.772745   2.160719   1.098257
    15  H    5.074314   4.036436   4.061841   2.743222   2.196509
    16  H    5.492461   4.412961   4.536269   3.354916   2.179952
    17  H    5.146058   4.507688   5.348027   4.604452   3.412909
    18  H    2.952779   2.841904   4.216516   4.298073   3.350294
                    6          7          8          9         10
     6  C    0.000000
     7  C    1.514538   0.000000
     8  C    2.352377   1.339159   0.000000
     9  N    2.337027   2.202379   1.357947   0.000000
    10  H    4.580962   5.063414   4.360504   3.174423   0.000000
    11  H    4.340784   4.922848   4.232119   2.879292   1.796902
    12  H    3.185659   4.388325   4.374689   3.257249   2.728187
    13  H    2.784406   3.639865   3.578160   2.733761   2.389007
    14  H    2.178102   2.999129   2.952888   2.061136   3.827029
    15  H    1.094412   2.159473   3.032215   3.015373   4.662599
    16  H    1.094109   2.165715   3.140876   3.156880   5.417384
    17  H    2.300149   1.080258   2.147962   3.239940   6.071691
    18  H    3.408073   2.186037   1.081751   2.133270   4.846484
                   11         12         13         14         15
    11  H    0.000000
    12  H    2.463210   0.000000
    13  H    3.071430   1.775655   0.000000
    14  H    2.788235   2.440539   3.065881   0.000000
    15  H    4.773783   3.207812   2.478536   3.012469   0.000000
    16  H    4.909285   3.618788   3.646984   2.332334   1.781619
    17  H    6.001344   5.367697   4.534567   3.991836   2.702918
    18  H    4.828068   5.313138   4.402523   3.912016   4.011779
                   16         17         18
    16  H    0.000000
    17  H    2.682579   0.000000
    18  H    4.166336   2.634818   0.000000
 Stoichiometry    C7H9NO
 Framework group  C1[X(C7H9NO)]
 Deg. of freedom    48
 Full point group                 C1      NOp   1
 Largest Abelian subgroup         C1      NOp   1
 Largest concise Abelian subgroup C1      NOp   1
                         Standard orientation:                         
 ---------------------------------------------------------------------
 Center     Atomic      Atomic             Coordinates (Angstroms)
 Number     Number       Type             X           Y           Z
 ---------------------------------------------------------------------
      1          8           0       -2.067460   -1.475468   -0.113208
      2          6           0       -1.345411   -0.508455    0.054262
      3          6           0       -1.771580    0.948182   -0.009777
      4          6           0       -0.449076    1.681253   -0.313270
      5          6           0        0.560064    0.843515    0.443096
      6          6           0        1.998412    0.706366   -0.059402
      7          6           0        2.146573   -0.796146   -0.179116
      8          6           0        0.967894   -1.407584   -0.005313
      9          7           0        0.017054   -0.483390    0.287584
     10          1           0       -2.503673    1.106896   -0.805065
     11          1           0       -2.187022    1.243556    0.958429
     12          1           0       -0.464272    2.726011    0.008763
     13          1           0       -0.254081    1.655984   -1.392598
     14          1           0        0.541000    1.088512    1.513507
     15          1           0        2.152800    1.188820   -1.029524
     16          1           0        2.711631    1.118458    0.660719
     17          1           0        3.063454   -1.292101   -0.462514
     18          1           0        0.719212   -2.451447   -0.142028
 ---------------------------------------------------------------------
 Rotational constants (GHZ):           2.9946560           1.7112051           1.1532687
 Leave Link  202 at Tue Apr  9 11:54:22 2024, MaxMem=  7516192768 cpu:               0.1 elap:               0.0
 (Enter /public3/home/scg9909/software-scg9909/g16/l301.exe)
 Standard basis: 6-31G(d) (6D, 7F)
 Ernie: Thresh=  0.10000D-02 Tol=  0.10000D-05 Strict=F.
 There are   153 symmetry adapted cartesian basis functions of A   symmetry.
 There are   153 symmetry adapted basis functions of A   symmetry.
   153 basis functions,   288 primitive gaussians,   153 cartesian basis functions
    33 alpha electrons       33 beta electrons
       nuclear repulsion energy       452.5212428881 Hartrees.
 IExCor=  402 DFT=T Ex+Corr=B3LYP ExCW=0 ScaHFX=  0.200000
 ScaDFX=  0.800000  0.720000  1.000000  0.810000 ScalE2=  1.000000  1.000000
 IRadAn=      5 IRanWt=     -1 IRanGd=            0 ICorTp=0 IEmpDi=141
 NAtoms=   18 NActive=   18 NUniq=   18 SFac= 1.00D+00 NAtFMM=   60 NAOKFM=F Big=F
 Integral buffers will be    131072 words long.
 Raffenetti 2 integral format.
 Two-electron integral symmetry is turned on.
 R6Disp:  Grimme-D3(BJ) Dispersion energy=       -0.0315518438 Hartrees.
 Nuclear repulsion after empirical dispersion term =      452.4896910443 Hartrees.
 Leave Link  301 at Tue Apr  9 11:54:22 2024, MaxMem=  7516192768 cpu:               0.6 elap:               0.0
 (Enter /public3/home/scg9909/software-scg9909/g16/l302.exe)
 NPDir=0 NMtPBC=     1 NCelOv=     1 NCel=       1 NClECP=     1 NCelD=      1
         NCelK=      1 NCelE2=     1 NClLst=     1 CellRange=     0.0.
 One-electron integrals computed using PRISM.
 One-electron integral symmetry used in STVInt
 NBasis=   153 RedAO= T EigKep=  1.65D-03  NBF=   153
 NBsUse=   153 1.00D-06 EigRej= -1.00D+00 NBFU=   153
 Precomputing XC quadrature grid using
 IXCGrd= 4 IRadAn=           5 IRanWt=          -1 IRanGd=           0 AccXCQ= 0.00D+00.
 Generated NRdTot=       0 NPtTot=           0 NUsed=           0 NTot=          32
 NSgBfM=   153   153   153   153   153 MxSgAt=    18 MxSgA2=    18.
 Leave Link  302 at Tue Apr  9 11:54:22 2024, MaxMem=  7516192768 cpu:               2.6 elap:               0.1
 (Enter /public3/home/scg9909/software-scg9909/g16/l303.exe)
 DipDrv:  MaxL=1.
 Leave Link  303 at Tue Apr  9 11:54:22 2024, MaxMem=  7516192768 cpu:               0.3 elap:               0.0
 (Enter /public3/home/scg9909/software-scg9909/g16/l401.exe)
 ExpMin= 1.61D-01 ExpMax= 5.48D+03 ExpMxC= 8.25D+02 IAcc=3 IRadAn=         5 AccDes= 0.00D+00
 Harris functional with IExCor=  402 and IRadAn=       5 diagonalized for initial guess.
 HarFok:  IExCor=  402 AccDes= 0.00D+00 IRadAn=         5 IDoV= 1 UseB2=F ITyADJ=14
 ICtDFT=  3500011 ScaDFX=  1.000000  1.000000  1.000000  1.000000
 FoFCou: FMM=F IPFlag=           0 FMFlag=      100000 FMFlg1=           0
         NFxFlg=           0 DoJE=T BraDBF=F KetDBF=T FulRan=T
         wScrn=  0.000000 ICntrl=       500 IOpCl=  0 I1Cent=   200000004 NGrid=           0
         NMat0=    1 NMatS0=      1 NMatT0=    0 NMatD0=    1 NMtDS0=    0 NMtDT0=    0
 Petite list used in FoFCou.
 Harris En= -402.167080613162    
 JPrj=0 DoOrth=F DoCkMO=F.
 Leave Link  401 at Tue Apr  9 11:54:23 2024, MaxMem=  7516192768 cpu:               8.8 elap:               0.3
 (Enter /public3/home/scg9909/software-scg9909/g16/l502.exe)
 Integral symmetry usage will be decided dynamically.
 Closed shell SCF:
 Using DIIS extrapolation, IDIIS=  1040.
 NGot=  7516192768 LenX=  7516139403 LenY=  7516115553
 Requested convergence on RMS density matrix=1.00D-08 within 128 cycles.
 Requested convergence on MAX density matrix=1.00D-06.
 Requested convergence on             energy=1.00D-06.
 No special actions if energy rises.
 Fock matrices will be formed incrementally for  20 cycles.
 Integral accuracy reduced to 1.0D-05 until final iterations.

 Cycle   1  Pass 0  IDiag  1:
 FoFJK:  IHMeth= 1 ICntrl=       0 DoSepK=F KAlg= 0 I1Cent=           0 FoldK=F
 IRaf= 970000000 NMat=       1 IRICut=       1 DoRegI=T DoRafI=F ISym2E= 0 IDoP0=0 IntGTp=1.
 FoFCou: FMM=F IPFlag=           0 FMFlag=      100000 FMFlg1=           0
         NFxFlg=           0 DoJE=F BraDBF=F KetDBF=F FulRan=T
         wScrn=  0.000000 ICntrl=         0 IOpCl=  0 I1Cent=           0 NGrid=           0
         NMat0=    1 NMatS0=      1 NMatT0=    0 NMatD0=    1 NMtDS0=    0 NMtDT0=    0
 Symmetry not used in FoFCou.
 E= -401.916383238376    
 DIIS: error= 3.61D-02 at cycle   1 NSaved=   1.
 NSaved= 1 IEnMin= 1 EnMin= -401.916383238376     IErMin= 1 ErrMin= 3.61D-02
 ErrMax= 3.61D-02  0.00D+00 EMaxC= 1.00D-01 BMatC= 2.52D-01 BMatP= 2.52D-01
 IDIUse=3 WtCom= 6.39D-01 WtEn= 3.61D-01
 Coeff-Com:  0.100D+01
 Coeff-En:   0.100D+01
 Coeff:      0.100D+01
 Gap=     0.198 Goal=   None    Shift=    0.000
 GapD=    0.198 DampG=1.000 DampE=0.500 DampFc=0.5000 IDamp=-1.
 Damping current iteration by 5.00D-01
 RMSDP=8.25D-03 MaxDP=2.12D-01              OVMax= 2.24D-01

 Cycle   2  Pass 0  IDiag  1:
 RMSU=  4.10D-03    CP:  9.84D-01
 E= -401.995820352467     Delta-E=       -0.079437114091 Rises=F Damp=T
 DIIS: error= 1.38D-02 at cycle   2 NSaved=   2.
 NSaved= 2 IEnMin= 2 EnMin= -401.995820352467     IErMin= 2 ErrMin= 1.38D-02
 ErrMax= 1.38D-02  0.00D+00 EMaxC= 1.00D-01 BMatC= 3.69D-02 BMatP= 2.52D-01
 IDIUse=3 WtCom= 8.62D-01 WtEn= 1.38D-01
 Coeff-Com:  0.194D+00 0.806D+00
 Coeff-En:   0.281D+00 0.719D+00
 Coeff:      0.206D+00 0.794D+00
 Gap=     0.252 Goal=   None    Shift=    0.000
 RMSDP=2.39D-03 MaxDP=8.04D-02 DE=-7.94D-02 OVMax= 1.56D-01

 Cycle   3  Pass 0  IDiag  1:
 RMSU=  2.14D-03    CP:  9.75D-01  7.46D-01
 E= -402.122839487835     Delta-E=       -0.127019135368 Rises=F Damp=F
 DIIS: error= 1.32D-02 at cycle   3 NSaved=   3.
 NSaved= 3 IEnMin= 3 EnMin= -402.122839487835     IErMin= 3 ErrMin= 1.32D-02
 ErrMax= 1.32D-02  0.00D+00 EMaxC= 1.00D-01 BMatC= 3.77D-02 BMatP= 3.69D-02
 IDIUse=3 WtCom= 8.68D-01 WtEn= 1.32D-01
 Coeff-Com:  0.511D-01 0.495D+00 0.454D+00
 Coeff-En:   0.000D+00 0.000D+00 0.100D+01
 Coeff:      0.444D-01 0.430D+00 0.526D+00
 Gap=     0.208 Goal=   None    Shift=    0.000
 RMSDP=1.83D-03 MaxDP=5.18D-02 DE=-1.27D-01 OVMax= 7.96D-02

 Cycle   4  Pass 0  IDiag  1:
 RMSU=  1.06D-03    CP:  9.82D-01  8.59D-01  3.41D-01
 E= -402.147720163600     Delta-E=       -0.024880675765 Rises=F Damp=F
 DIIS: error= 7.22D-03 at cycle   4 NSaved=   4.
 NSaved= 4 IEnMin= 4 EnMin= -402.147720163600     IErMin= 4 ErrMin= 7.22D-03
 ErrMax= 7.22D-03  0.00D+00 EMaxC= 1.00D-01 BMatC= 9.62D-03 BMatP= 3.69D-02
 IDIUse=3 WtCom= 9.28D-01 WtEn= 7.22D-02
 Coeff-Com:  0.111D-01 0.893D-01 0.338D+00 0.561D+00
 Coeff-En:   0.000D+00 0.000D+00 0.242D+00 0.758D+00
 Coeff:      0.103D-01 0.829D-01 0.331D+00 0.576D+00
 Gap=     0.203 Goal=   None    Shift=    0.000
 RMSDP=7.27D-04 MaxDP=2.16D-02 DE=-2.49D-02 OVMax= 3.15D-02

 Cycle   5  Pass 0  IDiag  1:
 RMSU=  2.40D-04    CP:  9.80D-01  8.05D-01  5.54D-01  5.67D-01
 E= -402.155543514194     Delta-E=       -0.007823350594 Rises=F Damp=F
 DIIS: error= 9.00D-04 at cycle   5 NSaved=   5.
 NSaved= 5 IEnMin= 5 EnMin= -402.155543514194     IErMin= 5 ErrMin= 9.00D-04
 ErrMax= 9.00D-04  0.00D+00 EMaxC= 1.00D-01 BMatC= 3.19D-04 BMatP= 9.62D-03
 IDIUse=3 WtCom= 9.91D-01 WtEn= 9.00D-03
 Coeff-Com:  0.250D-02 0.111D-01 0.136D+00 0.298D+00 0.553D+00
 Coeff-En:   0.000D+00 0.000D+00 0.000D+00 0.000D+00 0.100D+01
 Coeff:      0.247D-02 0.110D-01 0.135D+00 0.295D+00 0.557D+00
 Gap=     0.205 Goal=   None    Shift=    0.000
 RMSDP=1.45D-04 MaxDP=4.21D-03 DE=-7.82D-03 OVMax= 9.04D-03

 Cycle   6  Pass 0  IDiag  1:
 RMSU=  7.51D-05    CP:  9.80D-01  8.12D-01  5.44D-01  6.16D-01  5.56D-01
 E= -402.155805529053     Delta-E=       -0.000262014859 Rises=F Damp=F
 DIIS: error= 2.24D-04 at cycle   6 NSaved=   6.
 NSaved= 6 IEnMin= 6 EnMin= -402.155805529053     IErMin= 6 ErrMin= 2.24D-04
 ErrMax= 2.24D-04  0.00D+00 EMaxC= 1.00D-01 BMatC= 3.00D-05 BMatP= 3.19D-04
 IDIUse=3 WtCom= 9.98D-01 WtEn= 2.24D-03
 Coeff-Com:  0.325D-03-0.250D-02 0.380D-01 0.969D-01 0.301D+00 0.567D+00
 Coeff-En:   0.000D+00 0.000D+00 0.000D+00 0.000D+00 0.354D-01 0.965D+00
 Coeff:      0.325D-03-0.250D-02 0.379D-01 0.967D-01 0.300D+00 0.567D+00
 Gap=     0.204 Goal=   None    Shift=    0.000
 RMSDP=4.24D-05 MaxDP=1.21D-03 DE=-2.62D-04 OVMax= 2.74D-03

 Cycle   7  Pass 0  IDiag  1:
 RMSU=  1.95D-05    CP:  9.80D-01  8.12D-01  5.46D-01  6.18D-01  6.37D-01
                    CP:  5.77D-01
 E= -402.155832243579     Delta-E=       -0.000026714526 Rises=F Damp=F
 DIIS: error= 8.38D-05 at cycle   7 NSaved=   7.
 NSaved= 7 IEnMin= 7 EnMin= -402.155832243579     IErMin= 7 ErrMin= 8.38D-05
 ErrMax= 8.38D-05  0.00D+00 EMaxC= 1.00D-01 BMatC= 1.83D-06 BMatP= 3.00D-05
 IDIUse=1 WtCom= 1.00D+00 WtEn= 0.00D+00
 Coeff-Com:  0.132D-03-0.199D-02 0.141D-01 0.376D-01 0.140D+00 0.305D+00
 Coeff-Com:  0.506D+00
 Coeff:      0.132D-03-0.199D-02 0.141D-01 0.376D-01 0.140D+00 0.305D+00
 Coeff:      0.506D+00
 Gap=     0.204 Goal=   None    Shift=    0.000
 RMSDP=1.06D-05 MaxDP=4.43D-04 DE=-2.67D-05 OVMax= 8.03D-04

 Cycle   8  Pass 0  IDiag  1:
 RMSU=  6.74D-06    CP:  9.80D-01  8.11D-01  5.47D-01  6.18D-01  6.33D-01
                    CP:  6.22D-01  6.34D-01
 E= -402.155833927105     Delta-E=       -0.000001683526 Rises=F Damp=F
 DIIS: error= 2.81D-05 at cycle   8 NSaved=   8.
 NSaved= 8 IEnMin= 8 EnMin= -402.155833927105     IErMin= 8 ErrMin= 2.81D-05
 ErrMax= 2.81D-05  0.00D+00 EMaxC= 1.00D-01 BMatC= 2.23D-07 BMatP= 1.83D-06
 IDIUse=1 WtCom= 1.00D+00 WtEn= 0.00D+00
 Coeff-Com:  0.705D-04-0.677D-03 0.239D-02 0.629D-02 0.348D-01 0.842D-01
 Coeff-Com:  0.280D+00 0.593D+00
 Coeff:      0.705D-04-0.677D-03 0.239D-02 0.629D-02 0.348D-01 0.842D-01
 Coeff:      0.280D+00 0.593D+00
 Gap=     0.204 Goal=   None    Shift=    0.000
 RMSDP=4.08D-06 MaxDP=1.19D-04 DE=-1.68D-06 OVMax= 2.71D-04

 Initial convergence to 1.0D-05 achieved.  Increase integral accuracy.
 Cycle   9  Pass 1  IDiag  1:
 E= -402.155814334498     Delta-E=        0.000019592606 Rises=F Damp=F
 DIIS: error= 8.22D-06 at cycle   1 NSaved=   1.
 NSaved= 1 IEnMin= 1 EnMin= -402.155814334498     IErMin= 1 ErrMin= 8.22D-06
 ErrMax= 8.22D-06  0.00D+00 EMaxC= 1.00D-01 BMatC= 4.36D-08 BMatP= 4.36D-08
 IDIUse=1 WtCom= 1.00D+00 WtEn= 0.00D+00
 Coeff-Com:  0.100D+01
 Coeff:      0.100D+01
 Gap=     0.204 Goal=   None    Shift=    0.000
 RMSDP=4.08D-06 MaxDP=1.19D-04 DE= 1.96D-05 OVMax= 1.50D-04

 Cycle  10  Pass 1  IDiag  1:
 RMSU=  4.11D-06    CP:  1.00D+00
 E= -402.155814298830     Delta-E=        0.000000035668 Rises=F Damp=F
 DIIS: error= 1.54D-05 at cycle   2 NSaved=   2.
 NSaved= 2 IEnMin= 1 EnMin= -402.155814334498     IErMin= 1 ErrMin= 8.22D-06
 ErrMax= 1.54D-05  0.00D+00 EMaxC= 1.00D-01 BMatC= 8.09D-08 BMatP= 4.36D-08
 IDIUse=1 WtCom= 1.00D+00 WtEn= 0.00D+00
 Coeff-Com:  0.585D+00 0.415D+00
 Coeff:      0.585D+00 0.415D+00
 Gap=     0.204 Goal=   None    Shift=    0.000
 RMSDP=2.24D-06 MaxDP=6.46D-05 DE= 3.57D-08 OVMax= 1.38D-04

 Cycle  11  Pass 1  IDiag  1:
 RMSU=  1.55D-06    CP:  1.00D+00  6.07D-01
 E= -402.155814371171     Delta-E=       -0.000000072341 Rises=F Damp=F
 DIIS: error= 4.61D-06 at cycle   3 NSaved=   3.
 NSaved= 3 IEnMin= 3 EnMin= -402.155814371171     IErMin= 3 ErrMin= 4.61D-06
 ErrMax= 4.61D-06  0.00D+00 EMaxC= 1.00D-01 BMatC= 4.37D-09 BMatP= 4.36D-08
 IDIUse=1 WtCom= 1.00D+00 WtEn= 0.00D+00
 Coeff-Com:  0.135D+00 0.207D+00 0.658D+00
 Coeff:      0.135D+00 0.207D+00 0.658D+00
 Gap=     0.204 Goal=   None    Shift=    0.000
 RMSDP=5.86D-07 MaxDP=1.95D-05 DE=-7.23D-08 OVMax= 3.73D-05

 Cycle  12  Pass 1  IDiag  1:
 RMSU=  5.00D-07    CP:  1.00D+00  6.52D-01  8.47D-01
 E= -402.155814374035     Delta-E=       -0.000000002864 Rises=F Damp=F
 DIIS: error= 2.69D-06 at cycle   4 NSaved=   4.
 NSaved= 4 IEnMin= 4 EnMin= -402.155814374035     IErMin= 4 ErrMin= 2.69D-06
 ErrMax= 2.69D-06  0.00D+00 EMaxC= 1.00D-01 BMatC= 1.39D-09 BMatP= 4.37D-09
 IDIUse=1 WtCom= 1.00D+00 WtEn= 0.00D+00
 Coeff-Com:  0.943D-03 0.782D-01 0.432D+00 0.489D+00
 Coeff:      0.943D-03 0.782D-01 0.432D+00 0.489D+00
 Gap=     0.204 Goal=   None    Shift=    0.000
 RMSDP=2.68D-07 MaxDP=7.97D-06 DE=-2.86D-09 OVMax= 1.12D-05

 Cycle  13  Pass 1  IDiag  1:
 RMSU=  1.08D-07    CP:  1.00D+00  6.59D-01  8.81D-01  5.25D-01
 E= -402.155814375193     Delta-E=       -0.000000001158 Rises=F Damp=F
 DIIS: error= 8.16D-07 at cycle   5 NSaved=   5.
 NSaved= 5 IEnMin= 5 EnMin= -402.155814375193     IErMin= 5 ErrMin= 8.16D-07
 ErrMax= 8.16D-07  0.00D+00 EMaxC= 1.00D-01 BMatC= 1.02D-10 BMatP= 1.39D-09
 IDIUse=1 WtCom= 1.00D+00 WtEn= 0.00D+00
 Coeff-Com: -0.638D-02 0.390D-01 0.234D+00 0.310D+00 0.424D+00
 Coeff:     -0.638D-02 0.390D-01 0.234D+00 0.310D+00 0.424D+00
 Gap=     0.204 Goal=   None    Shift=    0.000
 RMSDP=6.67D-08 MaxDP=2.24D-06 DE=-1.16D-09 OVMax= 2.67D-06

 Cycle  14  Pass 1  IDiag  1:
 RMSU=  3.86D-08    CP:  1.00D+00  6.63D-01  8.78D-01  5.51D-01  5.33D-01
 E= -402.155814375273     Delta-E=       -0.000000000080 Rises=F Damp=F
 DIIS: error= 1.50D-07 at cycle   6 NSaved=   6.
 NSaved= 6 IEnMin= 6 EnMin= -402.155814375273     IErMin= 6 ErrMin= 1.50D-07
 ErrMax= 1.50D-07  0.00D+00 EMaxC= 1.00D-01 BMatC= 4.48D-12 BMatP= 1.02D-10
 IDIUse=1 WtCom= 1.00D+00 WtEn= 0.00D+00
 Coeff-Com: -0.358D-02 0.161D-01 0.946D-01 0.135D+00 0.234D+00 0.524D+00
 Coeff:     -0.358D-02 0.161D-01 0.946D-01 0.135D+00 0.234D+00 0.524D+00
 Gap=     0.204 Goal=   None    Shift=    0.000
 RMSDP=1.81D-08 MaxDP=5.07D-07 DE=-7.96D-11 OVMax= 1.31D-06

 Cycle  15  Pass 1  IDiag  1:
 RMSU=  1.27D-08    CP:  1.00D+00  6.64D-01  8.77D-01  5.52D-01  5.46D-01
                    CP:  6.96D-01
 E= -402.155814375276     Delta-E=       -0.000000000004 Rises=F Damp=F
 DIIS: error= 4.74D-08 at cycle   7 NSaved=   7.
 NSaved= 7 IEnMin= 7 EnMin= -402.155814375276     IErMin= 7 ErrMin= 4.74D-08
 ErrMax= 4.74D-08  0.00D+00 EMaxC= 1.00D-01 BMatC= 4.73D-13 BMatP= 4.48D-12
 IDIUse=1 WtCom= 1.00D+00 WtEn= 0.00D+00
 Coeff-Com: -0.109D-02 0.379D-02 0.203D-01 0.332D-01 0.703D-01 0.288D+00
 Coeff-Com:  0.586D+00
 Coeff:     -0.109D-02 0.379D-02 0.203D-01 0.332D-01 0.703D-01 0.288D+00
 Coeff:      0.586D+00
 Gap=     0.204 Goal=   None    Shift=    0.000
 RMSDP=5.75D-09 MaxDP=1.43D-07 DE=-3.87D-12 OVMax= 3.19D-07

 SCF Done:  E(RB3LYP) =  -402.155814375     A.U. after   15 cycles
            NFock= 15  Conv=0.58D-08     -V/T= 2.0087
 KE= 3.986810490326D+02 PE=-1.839911222234D+03 EE= 5.865846677819D+02
 Leave Link  502 at Tue Apr  9 11:54:27 2024, MaxMem=  7516192768 cpu:             122.6 elap:               4.4
 (Enter /public3/home/scg9909/software-scg9909/g16/l601.exe)
 Copying SCF densities to generalized density rwf, IOpCl= 0 IROHF=0.

 **********************************************************************

            Population analysis using the SCF Density.

 **********************************************************************

 Orbital symmetries:
       Occupied  (A) (A) (A) (A) (A) (A) (A) (A) (A) (A) (A) (A)
                 (A) (A) (A) (A) (A) (A) (A) (A) (A) (A) (A) (A)
                 (A) (A) (A) (A) (A) (A) (A) (A) (A)
       Virtual   (A) (A) (A) (A) (A) (A) (A) (A) (A) (A) (A) (A)
                 (A) (A) (A) (A) (A) (A) (A) (A) (A) (A) (A) (A)
                 (A) (A) (A) (A) (A) (A) (A) (A) (A) (A) (A) (A)
                 (A) (A) (A) (A) (A) (A) (A) (A) (A) (A) (A) (A)
                 (A) (A) (A) (A) (A) (A) (A) (A) (A) (A) (A) (A)
                 (A) (A) (A) (A) (A) (A) (A) (A) (A) (A) (A) (A)
                 (A) (A) (A) (A) (A) (A) (A) (A) (A) (A) (A) (A)
                 (A) (A) (A) (A) (A) (A) (A) (A) (A) (A) (A) (A)
                 (A) (A) (A) (A) (A) (A) (A) (A) (A) (A) (A) (A)
                 (A) (A) (A) (A) (A) (A) (A) (A) (A) (A) (A) (A)
 The electronic state is 1-A.
 Alpha  occ. eigenvalues --  -19.11181 -14.36442 -10.28118 -10.23200 -10.22073
 Alpha  occ. eigenvalues --  -10.19892 -10.19865 -10.19399 -10.18255  -1.03472
 Alpha  occ. eigenvalues --   -0.97780  -0.82448  -0.79109  -0.72007  -0.67230
 Alpha  occ. eigenvalues --   -0.61069  -0.59591  -0.54871  -0.51047  -0.46715
 Alpha  occ. eigenvalues --   -0.45767  -0.43561  -0.42733  -0.42077  -0.39512
 Alpha  occ. eigenvalues --   -0.39013  -0.38188  -0.37943  -0.34497  -0.33990
 Alpha  occ. eigenvalues --   -0.31534  -0.24387  -0.20364
 Alpha virt. eigenvalues --    0.00062   0.05202   0.08555   0.10873   0.11473
 Alpha virt. eigenvalues --    0.13189   0.13690   0.15625   0.16902   0.17099
 Alpha virt. eigenvalues --    0.17974   0.19548   0.20220   0.23124   0.24370
 Alpha virt. eigenvalues --    0.26137   0.28632   0.32585   0.35685   0.38174
 Alpha virt. eigenvalues --    0.41949   0.49208   0.51864   0.52987   0.53834
 Alpha virt. eigenvalues --    0.54168   0.56544   0.57962   0.59710   0.61584
 Alpha virt. eigenvalues --    0.62892   0.63620   0.65438   0.67257   0.68561
 Alpha virt. eigenvalues --    0.71419   0.73365   0.74716   0.78919   0.80199
 Alpha virt. eigenvalues --    0.83132   0.83862   0.85018   0.85559   0.86747
 Alpha virt. eigenvalues --    0.87607   0.88833   0.91447   0.92677   0.93481
 Alpha virt. eigenvalues --    0.94782   0.95814   0.98800   1.03598   1.05912
 Alpha virt. eigenvalues --    1.09107   1.11008   1.14844   1.19712   1.25709
 Alpha virt. eigenvalues --    1.31533   1.34396   1.35411   1.43271   1.45992
 Alpha virt. eigenvalues --    1.51343   1.56768   1.61373   1.64370   1.73719
 Alpha virt. eigenvalues --    1.77166   1.78899   1.79610   1.81387   1.81573
 Alpha virt. eigenvalues --    1.83961   1.85004   1.87779   1.92085   1.94725
 Alpha virt. eigenvalues --    1.96291   1.98450   2.00194   2.02447   2.06979
 Alpha virt. eigenvalues --    2.08093   2.10971   2.14279   2.18593   2.22538
 Alpha virt. eigenvalues --    2.22754   2.29261   2.34335   2.35449   2.36129
 Alpha virt. eigenvalues --    2.40366   2.47125   2.48472   2.51807   2.55136
 Alpha virt. eigenvalues --    2.55810   2.61347   2.70190   2.72149   2.75669
 Alpha virt. eigenvalues --    2.77559   2.84303   2.91272   3.00360   3.10610
 Alpha virt. eigenvalues --    3.24826   4.06548   4.10726   4.13593   4.17979
 Alpha virt. eigenvalues --    4.27028   4.35668   4.48535   4.65939   4.69944
          Condensed to atoms (all electrons):
               1          2          3          4          5          6
     1  O    8.035578   0.613317  -0.078351   0.002402   0.003197  -0.000160
     2  C    0.613317   4.372498   0.334000  -0.049218  -0.053109   0.002754
     3  C   -0.078351   0.334000   5.356636   0.315014  -0.047699   0.003263
     4  C    0.002402  -0.049218   0.315014   5.098653   0.370893  -0.026038
     5  C    0.003197  -0.053109  -0.047699   0.370893   4.847403   0.370766
     6  C   -0.000160   0.002754   0.003263  -0.026038   0.370766   5.088036
     7  C    0.000636   0.006294   0.000005  -0.000181  -0.043107   0.368923
     8  C    0.005346  -0.029287   0.011812   0.005468  -0.067758  -0.044069
     9  N   -0.085209   0.266857  -0.164867  -0.042786   0.299707  -0.081893
    10  H    0.001309  -0.024344   0.367446  -0.029245   0.004788  -0.000079
    11  H    0.000943  -0.021193   0.350956  -0.032447   0.000758  -0.000068
    12  H   -0.000060   0.003717  -0.026324   0.357178  -0.029556  -0.000646
    13  H    0.000020   0.002187  -0.039631   0.374424  -0.036892  -0.006389
    14  H    0.000013   0.000312  -0.004820  -0.044181   0.377240  -0.044493
    15  H   -0.000001   0.000374   0.000003  -0.007417  -0.033506   0.358534
    16  H    0.000001  -0.000092  -0.000084   0.002191  -0.027802   0.367280
    17  H    0.000002  -0.000127   0.000021  -0.000110   0.004827  -0.042075
    18  H    0.003526   0.000316   0.000265  -0.000263   0.005121   0.005056
               7          8          9         10         11         12
     1  O    0.000636   0.005346  -0.085209   0.001309   0.000943  -0.000060
     2  C    0.006294  -0.029287   0.266857  -0.024344  -0.021193   0.003717
     3  C    0.000005   0.011812  -0.164867   0.367446   0.350956  -0.026324
     4  C   -0.000181   0.005468  -0.042786  -0.029245  -0.032447   0.357178
     5  C   -0.043107  -0.067758   0.299707   0.004788   0.000758  -0.029556
     6  C    0.368923  -0.044069  -0.081893  -0.000079  -0.000068  -0.000646
     7  C    5.025808   0.648935  -0.057481   0.000029  -0.000022  -0.000011
     8  C    0.648935   4.734071   0.296903  -0.000107  -0.000164  -0.000273
     9  N   -0.057481   0.296903   7.090091   0.003618  -0.000051   0.005124
    10  H    0.000029  -0.000107   0.003618   0.531380  -0.023602   0.000331
    11  H   -0.000022  -0.000164  -0.000051  -0.023602   0.550731  -0.004961
    12  H   -0.000011  -0.000273   0.005124   0.000331  -0.004961   0.582484
    13  H   -0.000546   0.000990  -0.000633  -0.006309   0.004791  -0.031074
    14  H    0.001842   0.005519  -0.057436  -0.000253   0.003998  -0.001847
    15  H   -0.036056  -0.002467   0.005028  -0.000027   0.000021   0.000918
    16  H   -0.031489   0.000448   0.003719   0.000003  -0.000002  -0.000190
    17  H    0.368268  -0.035521   0.004788  -0.000000  -0.000000   0.000004
    18  H   -0.045270   0.374022  -0.046785  -0.000004  -0.000002   0.000006
              13         14         15         16         17         18
     1  O    0.000020   0.000013  -0.000001   0.000001   0.000002   0.003526
     2  C    0.002187   0.000312   0.000374  -0.000092  -0.000127   0.000316
     3  C   -0.039631  -0.004820   0.000003  -0.000084   0.000021   0.000265
     4  C    0.374424  -0.044181  -0.007417   0.002191  -0.000110  -0.000263
     5  C   -0.036892   0.377240  -0.033506  -0.027802   0.004827   0.005121
     6  C   -0.006389  -0.044493   0.358534   0.367280  -0.042075   0.005056
     7  C   -0.000546   0.001842  -0.036056  -0.031489   0.368268  -0.045270
     8  C    0.000990   0.005519  -0.002467   0.000448  -0.035521   0.374022
     9  N   -0.000633  -0.057436   0.005028   0.003719   0.004788  -0.046785
    10  H   -0.006309  -0.000253  -0.000027   0.000003  -0.000000  -0.000004
    11  H    0.004791   0.003998   0.000021  -0.000002  -0.000000  -0.000002
    12  H   -0.031074  -0.001847   0.000918  -0.000190   0.000004   0.000006
    13  H    0.573997   0.005619   0.006061   0.000032  -0.000035   0.000001
    14  H    0.005619   0.610742   0.005512  -0.007995  -0.000168  -0.000108
    15  H    0.006061   0.005512   0.586384  -0.037095   0.000300  -0.000101
    16  H    0.000032  -0.007995  -0.037095   0.576601  -0.000269  -0.000133
    17  H   -0.000035  -0.000168   0.000300  -0.000269   0.567280  -0.001840
    18  H    0.000001  -0.000108  -0.000101  -0.000133  -0.001840   0.530853
 Mulliken charges:
               1
     1  O   -0.502511
     2  C    0.574746
     3  C   -0.377645
     4  C   -0.294338
     5  C    0.054730
     6  C   -0.318702
     7  C   -0.206576
     8  C    0.096131
     9  N   -0.438694
    10  H    0.175065
    11  H    0.170313
    12  H    0.145181
    13  H    0.153386
    14  H    0.150503
    15  H    0.153535
    16  H    0.154877
    17  H    0.134657
    18  H    0.175340
 Sum of Mulliken charges =  -0.00000
 Mulliken charges with hydrogens summed into heavy atoms:
               1
     1  O   -0.502511
     2  C    0.574746
     3  C   -0.032266
     4  C    0.004229
     5  C    0.205234
     6  C   -0.010290
     7  C   -0.071919
     8  C    0.271471
     9  N   -0.438694
 Electronic spatial extent (au):  <R**2>=           1042.4967
 Charge=              0.0000 electrons
 Dipole moment (field-independent basis, Debye):
    X=              2.4461    Y=              2.8360    Z=              0.1323  Tot=              3.7475
 Quadrupole moment (field-independent basis, Debye-Ang):
   XX=            -56.2782   YY=            -53.1450   ZZ=            -52.0273
   XY=             -6.3801   XZ=             -0.8920   YZ=              0.4363
 Traceless Quadrupole moment (field-independent basis, Debye-Ang):
   XX=             -2.4613   YY=              0.6718   ZZ=              1.7895
   XY=             -6.3801   XZ=             -0.8920   YZ=              0.4363
 Octapole moment (field-independent basis, Debye-Ang**2):
  XXX=             10.7838  YYY=             -4.6142  ZZZ=              0.2453  XYY=              8.1380
  XXY=             12.4656  XXZ=             -0.3419  XZZ=             -5.2440  YZZ=              1.6974
  YYZ=             -0.0103  XYZ=              2.2877
 Hexadecapole moment (field-independent basis, Debye-Ang**3):
 XXXX=           -802.7556 YYYY=           -460.4354 ZZZZ=            -94.6844 XXXY=            -25.4129
 XXXZ=             -5.3786 YYYX=            -11.0991 YYYZ=              4.3709 ZZZX=              1.4641
 ZZZY=              0.1995 XXYY=           -227.6292 XXZZ=           -145.5069 YYZZ=            -95.1930
 XXYZ=              2.2018 YYXZ=             -2.9912 ZZXY=              5.4529
 N-N= 4.524896910443D+02 E-N=-1.839911222112D+03  KE= 3.986810490326D+02
 No NMR shielding tensors so no spin-rotation constants.
 Leave Link  601 at Tue Apr  9 11:54:27 2024, MaxMem=  7516192768 cpu:               1.8 elap:               0.1
 (Enter /public3/home/scg9909/software-scg9909/g16/l701.exe)
 ... and contract with generalized density number  0.
 Compute integral first derivatives.
 R6Disp: Adding Grimme-D3(BJ) dispersion energy 1st derivatives to the gradient.
 Leave Link  701 at Tue Apr  9 11:54:27 2024, MaxMem=  7516192768 cpu:               2.0 elap:               0.1
 (Enter /public3/home/scg9909/software-scg9909/g16/l702.exe)
 L702 exits ... SP integral derivatives will be done elsewhere.
 Leave Link  702 at Tue Apr  9 11:54:27 2024, MaxMem=  7516192768 cpu:               0.2 elap:               0.0
 (Enter /public3/home/scg9909/software-scg9909/g16/l703.exe)
 Integral derivatives from FoFJK, PRISM(SPDF).
 Compute integral first derivatives, UseDBF=F ICtDFT=           0.
 Calling FoFJK, ICntrl=      2127 FMM=F ISym2X=0 I1Cent= 0 IOpClX= 0 NMat=1 NMatS=1 NMatT=0.
 FoFJK:  IHMeth= 1 ICntrl=    2127 DoSepK=F KAlg= 0 I1Cent=           0 FoldK=F
 IRaf=         0 NMat=       1 IRICut=       1 DoRegI=T DoRafI=F ISym2E= 0 IDoP0=0 IntGTp=1.
 FoFCou: FMM=F IPFlag=           0 FMFlag=      100000 FMFlg1=         800
         NFxFlg=           0 DoJE=F BraDBF=F KetDBF=F FulRan=T
         wScrn=  0.000000 ICntrl=      2127 IOpCl=  0 I1Cent=           0 NGrid=           0
         NMat0=    1 NMatS0=      1 NMatT0=    0 NMatD0=    1 NMtDS0=    0 NMtDT0=    0
 Symmetry not used in FoFCou.
 Leave Link  703 at Tue Apr  9 11:54:28 2024, MaxMem=  7516192768 cpu:              21.0 elap:               0.8
 (Enter /public3/home/scg9909/software-scg9909/g16/l716.exe)
 Dipole        = 9.62350840D-01 1.11577657D+00 5.20364494D-02
 ***** Axes restored to original set *****
 -------------------------------------------------------------------
 Center     Atomic                   Forces (Hartrees/Bohr)
 Number     Number              X              Y              Z
 -------------------------------------------------------------------
      1        8           0.008676270    0.001578591   -0.001875948
      2        6          -0.004471121    0.003235934    0.004086795
      3        6           0.001010760   -0.007252069    0.008228870
      4        6          -0.013300968   -0.009369536   -0.001193132
      5        6           0.002128579   -0.010307229    0.000268016
      6        6           0.010114973   -0.000910262   -0.004606808
      7        6           0.010629544    0.004811137    0.003508454
      8        6           0.029650799    0.004407558    0.006077242
      9        7          -0.039466689    0.024590728   -0.012833860
     10        1          -0.003174368    0.003068331   -0.005536634
     11        1          -0.003840448   -0.001170690    0.000184716
     12        1           0.000518087   -0.001409265    0.001334181
     13        1           0.002239954   -0.000099504   -0.001154360
     14        1          -0.000063014   -0.003941069    0.000351343
     15        1           0.000451788   -0.003360587    0.002670120
     16        1          -0.000742310   -0.003434997    0.003376373
     17        1           0.002064209   -0.000337057    0.000048741
     18        1          -0.002426046   -0.000100014   -0.002934108
 -------------------------------------------------------------------
 Cartesian Forces:  Max     0.039466689 RMS     0.008939851
 Leave Link  716 at Tue Apr  9 11:54:28 2024, MaxMem=  7516192768 cpu:               0.3 elap:               0.0
 (Enter /public3/home/scg9909/software-scg9909/g16/l103.exe)

 GradGradGradGradGradGradGradGradGradGradGradGradGradGradGradGradGradGrad
 Berny optimization.
 FormGI is forming the generalized inverse of G from B-inverse, IUseBI=4.
 Internal  Forces:  Max     0.031531115 RMS     0.004949308
 Search for a local minimum.
 Step number   1 out of a maximum of  108
 All quantities printed in internal units (Hartrees-Bohrs-Radians)
 RMS Force = .49493D-02 SwitMx=.10000D-02 MixMth= 1
 Mixed Optimization -- RFO/linear search
 Second derivative matrix not updated -- first step.
 ITU=  0
     Eigenvalues ---    0.00568   0.00715   0.01090   0.01382   0.01524
     Eigenvalues ---    0.02036   0.02613   0.03268   0.03856   0.04183
     Eigenvalues ---    0.04513   0.05049   0.05563   0.05950   0.05957
     Eigenvalues ---    0.06665   0.07264   0.07454   0.07980   0.08077
     Eigenvalues ---    0.08715   0.09952   0.12712   0.15871   0.15938
     Eigenvalues ---    0.19294   0.21810   0.22205   0.24959   0.26793
     Eigenvalues ---    0.28036   0.28653   0.29545   0.30054   0.33876
     Eigenvalues ---    0.34006   0.34308   0.34332   0.34342   0.34426
     Eigenvalues ---    0.34521   0.34984   0.35784   0.35963   0.46072
     Eigenvalues ---    0.50246   0.54190   0.96093
 RFO step:  Lambda=-9.50911791D-03 EMin= 5.68265720D-03
 Linear search not attempted -- first point.
 Iteration  1 RMS(Cart)=  0.03226788 RMS(Int)=  0.00053796
 Iteration  2 RMS(Cart)=  0.00057984 RMS(Int)=  0.00025733
 Iteration  3 RMS(Cart)=  0.00000027 RMS(Int)=  0.00025733
 ITry= 1 IFail=0 DXMaxC= 9.63D-02 DCOld= 1.00D+10 DXMaxT= 3.00D-01 DXLimC= 3.00D+00 Rises=F
 Variable       Old X    -DE/DX   Delta X   Delta X   Delta X     New X
                                 (Linear)    (Quad)   (Total)
    R1        2.30245  -0.00033   0.00000  -0.00034  -0.00034   2.30211
    R2        2.87059   0.01238   0.00000   0.03593   0.03593   2.90652
    R3        2.61260  -0.00329   0.00000  -0.00672  -0.00692   2.60568
    R4        2.91442   0.00620   0.00000   0.01837   0.01853   2.93295
    R5        2.06459  -0.00070   0.00000  -0.00199  -0.00199   2.06260
    R6        2.06773   0.00200   0.00000   0.00566   0.00566   2.07339
    R7        2.86108   0.01048   0.00000   0.03618   0.03632   2.89741
    R8        2.06617   0.00101   0.00000   0.00286   0.00286   2.06903
    R9        2.07320  -0.00072   0.00000  -0.00207  -0.00207   2.07113
   R10        2.89082   0.01603   0.00000   0.04710   0.04719   2.93801
   R11        2.72522   0.01855   0.00000   0.05152   0.05161   2.77683
   R12        2.07540   0.00141   0.00000   0.00406   0.00406   2.07946
   R13        2.86206   0.00923   0.00000   0.02256   0.02242   2.88448
   R14        2.06814   0.00334   0.00000   0.00947   0.00947   2.07761
   R15        2.06757   0.00057   0.00000   0.00163   0.00163   2.06919
   R16        2.53064   0.00643   0.00000   0.01190   0.01171   2.54235
   R17        2.04139   0.00195   0.00000   0.00527   0.00527   2.04666
   R18        2.56615   0.03153   0.00000   0.06249   0.06251   2.62866
   R19        2.04421  -0.00013   0.00000  -0.00036  -0.00036   2.04386
    A1        2.20063   0.00987   0.00000   0.03873   0.03870   2.23933
    A2        2.24158  -0.01072   0.00000  -0.04119  -0.04124   2.20035
    A3        1.84025   0.00088   0.00000   0.00359   0.00322   1.84347
    A4        1.79622   0.00112   0.00000   0.01088   0.01089   1.80711
    A5        1.93690  -0.00269   0.00000  -0.01828  -0.01902   1.91789
    A6        1.90506   0.00108   0.00000   0.00838   0.00834   1.91340
    A7        1.94154   0.00385   0.00000   0.04706   0.04742   1.98896
    A8        1.95131  -0.00046   0.00000  -0.00857  -0.00884   1.94246
    A9        1.92888  -0.00271   0.00000  -0.03669  -0.03665   1.89223
   A10        1.78262   0.00001   0.00000   0.00072   0.00031   1.78293
   A11        1.96526   0.00194   0.00000   0.02423   0.02399   1.98926
   A12        1.91247  -0.00040   0.00000  -0.00372  -0.00367   1.90880
   A13        1.97234   0.00060   0.00000   0.01005   0.00985   1.98219
   A14        1.93936  -0.00213   0.00000  -0.02963  -0.02957   1.90979
   A15        1.89046  -0.00008   0.00000  -0.00235  -0.00238   1.88807
   A16        2.10855   0.00461   0.00000   0.02530   0.02553   2.13408
   A17        1.77651  -0.00209   0.00000   0.00938   0.00872   1.78523
   A18        1.93040  -0.00247   0.00000  -0.02959  -0.02954   1.90087
   A19        1.80917   0.00045   0.00000   0.00246   0.00232   1.81149
   A20        1.93529  -0.00195   0.00000  -0.01751  -0.01768   1.91761
   A21        1.87950   0.00160   0.00000   0.01680   0.01713   1.89663
   A22        1.77919   0.00538   0.00000   0.01264   0.01250   1.79169
   A23        1.96524  -0.00131   0.00000  -0.00443  -0.00444   1.96080
   A24        1.94223  -0.00131   0.00000   0.00020  -0.00021   1.94202
   A25        1.93207  -0.00087   0.00000   0.00622   0.00632   1.93840
   A26        1.94111  -0.00024   0.00000   0.02066   0.02052   1.96163
   A27        1.90227  -0.00133   0.00000  -0.03128  -0.03135   1.87091
   A28        1.93542  -0.00121   0.00000  -0.01272  -0.01302   1.92240
   A29        2.16425   0.00017   0.00000   0.00430   0.00437   2.16862
   A30        2.17910   0.00109   0.00000   0.01022   0.01027   2.18937
   A31        1.91086   0.00492   0.00000   0.03139   0.03128   1.94213
   A32        2.24789   0.00067   0.00000   0.00313   0.00313   2.25102
   A33        2.12120  -0.00555   0.00000  -0.03337  -0.03338   2.08782
   A34        1.98882   0.00134   0.00000   0.00530   0.00493   1.99374
   A35        2.26699   0.00814   0.00000   0.02370   0.02333   2.29032
   A36        1.96689  -0.00953   0.00000  -0.03543  -0.03491   1.93198
    D1       -2.74562  -0.00022   0.00000  -0.01688  -0.01750  -2.76311
    D2       -0.66729   0.00365   0.00000   0.03572   0.03510  -0.63219
    D3        1.46269  -0.00077   0.00000  -0.01650  -0.01691   1.44578
    D4        0.35793   0.00037   0.00000   0.01180   0.01173   0.36966
    D5        2.43625   0.00424   0.00000   0.06440   0.06433   2.50058
    D6       -1.71695  -0.00018   0.00000   0.01218   0.01231  -1.70463
    D7       -3.14009   0.00013   0.00000  -0.00964  -0.01072   3.13237
    D8        0.40045   0.00269   0.00000   0.01929   0.01868   0.41914
    D9        0.04076  -0.00109   0.00000  -0.04162  -0.04141  -0.00066
   D10       -2.70189   0.00146   0.00000  -0.01269  -0.01200  -2.71389
   D11       -0.60156   0.00080   0.00000   0.02317   0.02333  -0.57822
   D12       -2.72220  -0.00091   0.00000  -0.00160  -0.00138  -2.72358
   D13        1.45581  -0.00181   0.00000  -0.01202  -0.01179   1.44402
   D14       -2.67665   0.00148   0.00000   0.01600   0.01566  -2.66099
   D15        1.48589  -0.00023   0.00000  -0.00876  -0.00905   1.47684
   D16       -0.61928  -0.00112   0.00000  -0.01918  -0.01946  -0.63875
   D17        1.44076   0.00249   0.00000   0.03519   0.03514   1.47590
   D18       -0.67988   0.00078   0.00000   0.01042   0.01042  -0.66946
   D19       -2.78506  -0.00011   0.00000   0.00001   0.00001  -2.78505
   D20        2.60258  -0.00137   0.00000  -0.02504  -0.02460   2.57799
   D21        0.61449  -0.00264   0.00000  -0.04761  -0.04745   0.56704
   D22       -1.37879  -0.00243   0.00000  -0.05974  -0.05941  -1.43820
   D23       -1.56484   0.00127   0.00000   0.00960   0.00978  -1.55506
   D24        2.73025  -0.00001   0.00000  -0.01297  -0.01307   2.71718
   D25        0.73697   0.00020   0.00000  -0.02510  -0.02504   0.71194
   D26        0.56452   0.00002   0.00000  -0.00821  -0.00805   0.55646
   D27       -1.42358  -0.00126   0.00000  -0.03077  -0.03090  -1.45448
   D28        2.86633  -0.00105   0.00000  -0.04290  -0.04287   2.82346
   D29       -2.16248  -0.00069   0.00000  -0.03452  -0.03461  -2.19709
   D30       -0.09176   0.00085   0.00000  -0.02181  -0.02183  -0.11359
   D31        2.04999  -0.00282   0.00000  -0.06576  -0.06570   1.98429
   D32       -0.19140  -0.00063   0.00000  -0.00767  -0.00787  -0.19927
   D33        1.87931   0.00090   0.00000   0.00505   0.00491   1.88423
   D34       -2.26212  -0.00277   0.00000  -0.03890  -0.03896  -2.30108
   D35        1.82096   0.00059   0.00000   0.00530   0.00524   1.82620
   D36       -2.39151   0.00213   0.00000   0.01802   0.01802  -2.37348
   D37       -0.24975  -0.00154   0.00000  -0.02594  -0.02585  -0.27561
   D38       -0.42764   0.00219   0.00000   0.05619   0.05623  -0.37141
   D39        2.38498   0.00380   0.00000   0.04458   0.04470   2.42968
   D40       -2.62847  -0.00221   0.00000   0.02259   0.02241  -2.60606
   D41        0.18415  -0.00059   0.00000   0.01099   0.01088   0.19503
   D42        1.60306  -0.00091   0.00000   0.03392   0.03386   1.63692
   D43       -1.86750   0.00071   0.00000   0.02232   0.02233  -1.84517
   D44        0.15532  -0.00030   0.00000  -0.00442  -0.00428   0.15104
   D45       -3.08295   0.00042   0.00000   0.01577   0.01584  -3.06711
   D46       -1.93884  -0.00138   0.00000  -0.00919  -0.00917  -1.94801
   D47        1.10607  -0.00065   0.00000   0.01099   0.01095   1.11702
   D48        2.22683   0.00107   0.00000   0.01224   0.01243   2.23926
   D49       -1.01145   0.00179   0.00000   0.03243   0.03255  -0.97889
   D50       -0.04979   0.00087   0.00000   0.01378   0.01390  -0.03589
   D51        3.00519   0.00112   0.00000   0.02770   0.02776   3.03296
   D52       -3.09371   0.00021   0.00000  -0.00620  -0.00609  -3.09981
   D53       -0.03873   0.00045   0.00000   0.00772   0.00777  -0.03096
   D54        2.65640  -0.00099   0.00000  -0.03801  -0.03858   2.61782
   D55       -0.09021  -0.00037   0.00000  -0.01656  -0.01670  -0.10691
   D56       -0.40601  -0.00153   0.00000  -0.05256  -0.05272  -0.45873
   D57        3.13057  -0.00091   0.00000  -0.03111  -0.03084   3.09973
         Item               Value     Threshold  Converged?
 Maximum Force            0.031531     0.000450     NO 
 RMS     Force            0.004949     0.000300     NO 
 Maximum Displacement     0.096335     0.001800     NO 
 RMS     Displacement     0.032200     0.001200     NO 
 Predicted change in Energy=-5.109603D-03
 Lowest energy point so far.  Saving SCF results.
 GradGradGradGradGradGradGradGradGradGradGradGradGradGradGradGradGradGrad

 Leave Link  103 at Tue Apr  9 11:54:28 2024, MaxMem=  7516192768 cpu:               0.6 elap:               0.0
 (Enter /public3/home/scg9909/software-scg9909/g16/l202.exe)
                          Input orientation:                          
 ---------------------------------------------------------------------
 Center     Atomic      Atomic             Coordinates (Angstroms)
 Number     Number       Type             X           Y           Z
 ---------------------------------------------------------------------
      1          8           0       -1.374998    2.518618   -0.515389
      2          6           0       -1.128568    1.332339   -0.388556
      3          6           0       -2.097735    0.188833   -0.043963
      4          6           0       -1.167393   -0.919018    0.518163
      5          6           0        0.112988   -0.710775   -0.299205
      6          6           0        1.525784   -0.995070    0.284209
      7          6           0        2.257290    0.323370    0.046490
      8          6           0        1.393203    1.262397   -0.379616
      9          7           0        0.110718    0.742100   -0.519164
     10          1           0       -2.848465    0.539775    0.666375
     11          1           0       -2.611268   -0.145908   -0.953940
     12          1           0       -1.579576   -1.930038    0.436210
     13          1           0       -0.961294   -0.718479    1.575762
     14          1           0        0.001451   -1.214361   -1.271238
     15          1           0        1.493897   -1.241715    1.355134
     16          1           0        2.004982   -1.836155   -0.227556
     17          1           0        3.304968    0.487507    0.266541
     18          1           0        1.563915    2.316680   -0.550260
 ---------------------------------------------------------------------
                    Distance matrix (angstroms):
                    1          2          3          4          5
     1  O    0.000000
     2  C    1.218225   0.000000
     3  C    2.484449   1.538062   0.000000
     4  C    3.595646   2.427397   1.552049   0.000000
     5  C    3.562277   2.392438   2.400363   1.533243   0.000000
     6  C    4.626001   3.593748   3.826122   2.704389   1.554730
     7  C    4.281160   3.559679   4.358042   3.673481   2.405617
     8  C    3.042936   2.522757   3.667677   3.481556   2.353470
     9  N    2.315897   1.378865   2.325766   2.338575   1.469433
    10  H    2.735597   2.167737   1.091483   2.230705   3.356549
    11  H    2.969914   2.168704   1.097190   2.202172   2.858203
    12  H    4.553891   3.395107   2.233533   1.094884   2.211834
    13  H    3.875933   2.844711   2.176746   1.095997   2.160936
    14  H    4.049821   2.922628   2.807444   2.157634   1.100404
    15  H    5.086208   4.067374   4.111418   2.808401   2.219379
    16  H    5.520068   4.459194   4.578927   3.385440   2.202556
    17  H    5.161289   4.560607   5.419855   4.695066   3.456108
    18  H    2.946049   2.871331   4.265179   4.367072   3.366557
                    6          7          8          9         10
     6  C    0.000000
     7  C    1.526400   0.000000
     8  C    2.356776   1.345356   0.000000
     9  N    2.380248   2.258998   1.391025   0.000000
    10  H    4.651435   5.147798   4.428096   3.194246   0.000000
    11  H    4.401055   4.992389   4.283569   2.895997   1.775344
    12  H    3.246618   4.466684   4.437862   3.303052   2.786222
    13  H    2.816056   3.712601   3.645686   2.769697   2.443686
    14  H    2.188856   3.031474   2.977632   2.098880   3.866958
    15  H    1.099424   2.178259   3.047962   3.059690   4.743859
    16  H    1.094970   2.191417   3.162027   3.212580   5.477235
    17  H    2.315997   1.083048   2.161670   3.299301   6.166631
    18  H    3.415476   2.193209   1.081562   2.142907   4.909857
                   11         12         13         14         15
    11  H    0.000000
    12  H    2.485966   0.000000
    13  H    3.074027   1.774465   0.000000
    14  H    2.840523   2.434588   3.046012   0.000000
    15  H    4.835803   3.280921   2.520003   3.020922   0.000000
    16  H    4.969340   3.646705   3.646910   2.343082   1.766204
    17  H    6.073932   5.452713   4.622711   4.021734   2.730425
    18  H    4.864099   5.374874   4.484288   3.928022   4.037029
                   16         17         18
    16  H    0.000000
    17  H    2.708043   0.000000
    18  H    4.188641   2.654111   0.000000
 Stoichiometry    C7H9NO
 Framework group  C1[X(C7H9NO)]
 Deg. of freedom    48
 Full point group                 C1      NOp   1
 RotChk:  IX=0 Diff= 2.91D-02
 Largest Abelian subgroup         C1      NOp   1
 Largest concise Abelian subgroup C1      NOp   1
                         Standard orientation:                         
 ---------------------------------------------------------------------
 Center     Atomic      Atomic             Coordinates (Angstroms)
 Number     Number       Type             X           Y           Z
 ---------------------------------------------------------------------
      1          8           0       -2.021835   -1.539855   -0.127318
      2          6           0       -1.354055   -0.534169    0.036196
      3          6           0       -1.813528    0.932984   -0.008322
      4          6           0       -0.503858    1.715408   -0.293693
      5          6           0        0.544795    0.865822    0.433880
      6          6           0        2.006748    0.733471   -0.078334
      7          6           0        2.190793   -0.778547   -0.177460
      8          6           0        1.014585   -1.402185    0.016431
      9          7           0        0.000027   -0.491602    0.292943
     10          1           0       -2.580804    1.058678   -0.774367
     11          1           0       -2.242573    1.214446    0.961485
     12          1           0       -0.527981    2.758907    0.036910
     13          1           0       -0.300078    1.702506   -1.370501
     14          1           0        0.545232    1.136198    1.500550
     15          1           0        2.152113    1.214149   -1.056368
     16          1           0        2.714823    1.195139    0.617691
     17          1           0        3.122382   -1.263160   -0.442573
     18          1           0        0.778504   -2.453518   -0.077069
 ---------------------------------------------------------------------
 Rotational constants (GHZ):           2.9067030           1.6869181           1.1276003
 Leave Link  202 at Tue Apr  9 11:54:28 2024, MaxMem=  7516192768 cpu:               0.1 elap:               0.0
 (Enter /public3/home/scg9909/software-scg9909/g16/l301.exe)
 Standard basis: 6-31G(d) (6D, 7F)
 Ernie: Thresh=  0.10000D-02 Tol=  0.10000D-05 Strict=F.
 There are   153 symmetry adapted cartesian basis functions of A   symmetry.
 There are   153 symmetry adapted basis functions of A   symmetry.
   153 basis functions,   288 primitive gaussians,   153 cartesian basis functions
    33 alpha electrons       33 beta electrons
       nuclear repulsion energy       448.0779391470 Hartrees.
 IExCor=  402 DFT=T Ex+Corr=B3LYP ExCW=0 ScaHFX=  0.200000
 ScaDFX=  0.800000  0.720000  1.000000  0.810000 ScalE2=  1.000000  1.000000
 IRadAn=      5 IRanWt=     -1 IRanGd=            0 ICorTp=0 IEmpDi=141
 NAtoms=   18 NActive=   18 NUniq=   18 SFac= 1.00D+00 NAtFMM=   60 NAOKFM=F Big=F
 Integral buffers will be    131072 words long.
 Raffenetti 2 integral format.
 Two-electron integral symmetry is turned on.
 R6Disp:  Grimme-D3(BJ) Dispersion energy=       -0.0311792565 Hartrees.
 Nuclear repulsion after empirical dispersion term =      448.0467598906 Hartrees.
 Leave Link  301 at Tue Apr  9 11:54:28 2024, MaxMem=  7516192768 cpu:               0.6 elap:               0.0
 (Enter /public3/home/scg9909/software-scg9909/g16/l302.exe)
 NPDir=0 NMtPBC=     1 NCelOv=     1 NCel=       1 NClECP=     1 NCelD=      1
         NCelK=      1 NCelE2=     1 NClLst=     1 CellRange=     0.0.
 One-electron integrals computed using PRISM.
 One-electron integral symmetry used in STVInt
 NBasis=   153 RedAO= T EigKep=  1.79D-03  NBF=   153
 NBsUse=   153 1.00D-06 EigRej= -1.00D+00 NBFU=   153
 Precomputing XC quadrature grid using
 IXCGrd= 4 IRadAn=           5 IRanWt=          -1 IRanGd=           0 AccXCQ= 0.00D+00.
 Generated NRdTot=       0 NPtTot=           0 NUsed=           0 NTot=          32
 NSgBfM=   153   153   153   153   153 MxSgAt=    18 MxSgA2=    18.
 Leave Link  302 at Tue Apr  9 11:54:28 2024, MaxMem=  7516192768 cpu:               2.5 elap:               0.1
 (Enter /public3/home/scg9909/software-scg9909/g16/l303.exe)
 DipDrv:  MaxL=1.
 Leave Link  303 at Tue Apr  9 11:54:28 2024, MaxMem=  7516192768 cpu:               0.3 elap:               0.0
 (Enter /public3/home/scg9909/software-scg9909/g16/l401.exe)
 Initial guess from the checkpoint file:  "/public3/home/scg9909/tmp/Gau-65552.chk"
 B after Tr=    -0.000000   -0.000000   -0.000000
         Rot=    0.999949    0.000333    0.000133   -0.010048 Ang=   1.15 deg.
 Guess basis will be translated and rotated to current coordinates.
 JPrj=2 DoOrth=T DoCkMO=T.
 Generating alternative initial guess.
 ExpMin= 1.61D-01 ExpMax= 5.48D+03 ExpMxC= 8.25D+02 IAcc=3 IRadAn=         5 AccDes= 0.00D+00
 Harris functional with IExCor=  402 and IRadAn=       5 diagonalized for initial guess.
 HarFok:  IExCor=  402 AccDes= 0.00D+00 IRadAn=         5 IDoV= 1 UseB2=F ITyADJ=14
 ICtDFT=  3500011 ScaDFX=  1.000000  1.000000  1.000000  1.000000
 FoFCou: FMM=F IPFlag=           0 FMFlag=      100000 FMFlg1=           0
         NFxFlg=           0 DoJE=T BraDBF=F KetDBF=T FulRan=T
         wScrn=  0.000000 ICntrl=       500 IOpCl=  0 I1Cent=   200000004 NGrid=           0
         NMat0=    1 NMatS0=      1 NMatT0=    0 NMatD0=    1 NMtDS0=    0 NMtDT0=    0
 Petite list used in FoFCou.
 Harris En= -402.166128563648    
 Leave Link  401 at Tue Apr  9 11:54:29 2024, MaxMem=  7516192768 cpu:              10.4 elap:               0.4
 (Enter /public3/home/scg9909/software-scg9909/g16/l502.exe)
 Integral symmetry usage will be decided dynamically.
 Closed shell SCF:
 Using DIIS extrapolation, IDIIS=  1040.
 NGot=  7516192768 LenX=  7516139403 LenY=  7516115553
 Requested convergence on RMS density matrix=1.00D-08 within 128 cycles.
 Requested convergence on MAX density matrix=1.00D-06.
 Requested convergence on             energy=1.00D-06.
 No special actions if energy rises.
 Fock matrices will be formed incrementally for  20 cycles.
 Integral accuracy reduced to 1.0D-05 until final iterations.

 Cycle   1  Pass 0  IDiag  1:
 FoFJK:  IHMeth= 1 ICntrl=       0 DoSepK=F KAlg= 0 I1Cent=           0 FoldK=F
 IRaf= 970000000 NMat=       1 IRICut=       1 DoRegI=T DoRafI=F ISym2E= 0 IDoP0=0 IntGTp=1.
 FoFCou: FMM=F IPFlag=           0 FMFlag=      100000 FMFlg1=           0
         NFxFlg=           0 DoJE=F BraDBF=F KetDBF=F FulRan=T
         wScrn=  0.000000 ICntrl=         0 IOpCl=  0 I1Cent=           0 NGrid=           0
         NMat0=    1 NMatS0=      1 NMatT0=    0 NMatD0=    1 NMtDS0=    0 NMtDT0=    0
 Symmetry not used in FoFCou.
 E= -402.157926165576    
 DIIS: error= 1.64D-03 at cycle   1 NSaved=   1.
 NSaved= 1 IEnMin= 1 EnMin= -402.157926165576     IErMin= 1 ErrMin= 1.64D-03
 ErrMax= 1.64D-03  0.00D+00 EMaxC= 1.00D-01 BMatC= 1.71D-03 BMatP= 1.71D-03
 IDIUse=3 WtCom= 9.84D-01 WtEn= 1.64D-02
 Coeff-Com:  0.100D+01
 Coeff-En:   0.100D+01
 Coeff:      0.100D+01
 Gap=     1.648 Goal=   None    Shift=    0.000
 GapD=    1.648 DampG=2.000 DampE=1.000 DampFc=2.0000 IDamp=-1.
 RMSDP=5.48D-04 MaxDP=7.13D-03              OVMax= 1.16D-02

 Cycle   2  Pass 0  IDiag  1:
 RMSU=  5.47D-04    CP:  9.99D-01
 E= -402.160533645732     Delta-E=       -0.002607480156 Rises=F Damp=F
 DIIS: error= 5.27D-04 at cycle   2 NSaved=   2.
 NSaved= 2 IEnMin= 2 EnMin= -402.160533645732     IErMin= 2 ErrMin= 5.27D-04
 ErrMax= 5.27D-04  0.00D+00 EMaxC= 1.00D-01 BMatC= 1.83D-04 BMatP= 1.71D-03
 IDIUse=3 WtCom= 9.95D-01 WtEn= 5.27D-03
 Coeff-Com:  0.117D+00 0.883D+00
 Coeff-En:   0.000D+00 0.100D+01
 Coeff:      0.116D+00 0.884D+00
 Gap=     0.208 Goal=   None    Shift=    0.000
 RMSDP=2.09D-04 MaxDP=5.08D-03 DE=-2.61D-03 OVMax= 1.04D-02

 Cycle   3  Pass 0  IDiag  1:
 RMSU=  2.08D-04    CP:  1.00D+00  9.84D-01
 E= -402.160411351465     Delta-E=        0.000122294266 Rises=F Damp=F
 DIIS: error= 1.13D-03 at cycle   3 NSaved=   3.
 NSaved= 3 IEnMin= 2 EnMin= -402.160533645732     IErMin= 2 ErrMin= 5.27D-04
 ErrMax= 1.13D-03  0.00D+00 EMaxC= 1.00D-01 BMatC= 3.31D-04 BMatP= 1.83D-04
 IDIUse=3 WtCom= 2.30D-01 WtEn= 7.70D-01
 Coeff-Com: -0.190D-01 0.585D+00 0.434D+00
 Coeff-En:   0.000D+00 0.612D+00 0.388D+00
 Coeff:     -0.437D-02 0.605D+00 0.399D+00
 Gap=     0.207 Goal=   None    Shift=    0.000
 RMSDP=1.34D-04 MaxDP=3.84D-03 DE= 1.22D-04 OVMax= 6.50D-03

 Cycle   4  Pass 0  IDiag  1:
 RMSU=  5.06D-05    CP:  9.99D-01  1.03D+00  4.20D-01
 E= -402.160700701695     Delta-E=       -0.000289350229 Rises=F Damp=F
 DIIS: error= 3.66D-04 at cycle   4 NSaved=   4.
 NSaved= 4 IEnMin= 4 EnMin= -402.160700701695     IErMin= 4 ErrMin= 3.66D-04
 ErrMax= 3.66D-04  0.00D+00 EMaxC= 1.00D-01 BMatC= 1.75D-05 BMatP= 1.83D-04
 IDIUse=3 WtCom= 9.96D-01 WtEn= 3.66D-03
 Coeff-Com: -0.201D-01 0.306D+00 0.247D+00 0.467D+00
 Coeff-En:   0.000D+00 0.000D+00 0.000D+00 0.100D+01
 Coeff:     -0.200D-01 0.305D+00 0.246D+00 0.469D+00
 Gap=     0.207 Goal=   None    Shift=    0.000
 RMSDP=2.80D-05 MaxDP=8.69D-04 DE=-2.89D-04 OVMax= 1.00D-03

 Cycle   5  Pass 0  IDiag  1:
 RMSU=  1.83D-05    CP:  9.99D-01  1.04D+00  4.23D-01  5.90D-01
 E= -402.160713776628     Delta-E=       -0.000013074933 Rises=F Damp=F
 DIIS: error= 5.57D-05 at cycle   5 NSaved=   5.
 NSaved= 5 IEnMin= 5 EnMin= -402.160713776628     IErMin= 5 ErrMin= 5.57D-05
 ErrMax= 5.57D-05  0.00D+00 EMaxC= 1.00D-01 BMatC= 9.67D-07 BMatP= 1.75D-05
 IDIUse=1 WtCom= 1.00D+00 WtEn= 0.00D+00
 Coeff-Com: -0.692D-02 0.771D-01 0.737D-01 0.224D+00 0.632D+00
 Coeff:     -0.692D-02 0.771D-01 0.737D-01 0.224D+00 0.632D+00
 Gap=     0.207 Goal=   None    Shift=    0.000
 RMSDP=7.43D-06 MaxDP=2.20D-04 DE=-1.31D-05 OVMax= 2.30D-04

 Initial convergence to 1.0D-05 achieved.  Increase integral accuracy.
 Cycle   6  Pass 1  IDiag  1:
 E= -402.160701762380     Delta-E=        0.000012014247 Rises=F Damp=F
 DIIS: error= 1.67D-05 at cycle   1 NSaved=   1.
 NSaved= 1 IEnMin= 1 EnMin= -402.160701762380     IErMin= 1 ErrMin= 1.67D-05
 ErrMax= 1.67D-05  0.00D+00 EMaxC= 1.00D-01 BMatC= 1.10D-07 BMatP= 1.10D-07
 IDIUse=1 WtCom= 1.00D+00 WtEn= 0.00D+00
 Coeff-Com:  0.100D+01
 Coeff:      0.100D+01
 Gap=     0.207 Goal=   None    Shift=    0.000
 RMSDP=7.43D-06 MaxDP=2.20D-04 DE= 1.20D-05 OVMax= 1.94D-04

 Cycle   7  Pass 1  IDiag  1:
 RMSU=  5.59D-06    CP:  1.00D+00
 E= -402.160701659325     Delta-E=        0.000000103056 Rises=F Damp=F
 DIIS: error= 2.71D-05 at cycle   2 NSaved=   2.
 NSaved= 2 IEnMin= 1 EnMin= -402.160701762380     IErMin= 1 ErrMin= 1.67D-05
 ErrMax= 2.71D-05  0.00D+00 EMaxC= 1.00D-01 BMatC= 2.32D-07 BMatP= 1.10D-07
 IDIUse=1 WtCom= 1.00D+00 WtEn= 0.00D+00
 Coeff-Com:  0.597D+00 0.403D+00
 Coeff:      0.597D+00 0.403D+00
 Gap=     0.207 Goal=   None    Shift=    0.000
 RMSDP=3.06D-06 MaxDP=8.46D-05 DE= 1.03D-07 OVMax= 1.17D-04

 Cycle   8  Pass 1  IDiag  1:
 RMSU=  1.70D-06    CP:  1.00D+00  5.46D-01
 E= -402.160701859994     Delta-E=       -0.000000200669 Rises=F Damp=F
 DIIS: error= 8.26D-06 at cycle   3 NSaved=   3.
 NSaved= 3 IEnMin= 3 EnMin= -402.160701859994     IErMin= 3 ErrMin= 8.26D-06
 ErrMax= 8.26D-06  0.00D+00 EMaxC= 1.00D-01 BMatC= 7.25D-09 BMatP= 1.10D-07
 IDIUse=1 WtCom= 1.00D+00 WtEn= 0.00D+00
 Coeff-Com:  0.259D+00 0.210D+00 0.531D+00
 Coeff:      0.259D+00 0.210D+00 0.531D+00
 Gap=     0.207 Goal=   None    Shift=    0.000
 RMSDP=7.66D-07 MaxDP=2.53D-05 DE=-2.01D-07 OVMax= 3.64D-05

 Cycle   9  Pass 1  IDiag  1:
 RMSU=  6.70D-07    CP:  1.00D+00  5.60D-01  7.89D-01
 E= -402.160701864205     Delta-E=       -0.000000004211 Rises=F Damp=F
 DIIS: error= 3.77D-06 at cycle   4 NSaved=   4.
 NSaved= 4 IEnMin= 4 EnMin= -402.160701864205     IErMin= 4 ErrMin= 3.77D-06
 ErrMax= 3.77D-06  0.00D+00 EMaxC= 1.00D-01 BMatC= 2.09D-09 BMatP= 7.25D-09
 IDIUse=1 WtCom= 1.00D+00 WtEn= 0.00D+00
 Coeff-Com:  0.290D-01 0.442D-01 0.361D+00 0.565D+00
 Coeff:      0.290D-01 0.442D-01 0.361D+00 0.565D+00
 Gap=     0.207 Goal=   None    Shift=    0.000
 RMSDP=3.40D-07 MaxDP=1.17D-05 DE=-4.21D-09 OVMax= 1.73D-05

 Cycle  10  Pass 1  IDiag  1:
 RMSU=  2.00D-07    CP:  1.00D+00  5.62D-01  8.46D-01  6.19D-01
 E= -402.160701865707     Delta-E=       -0.000000001502 Rises=F Damp=F
 DIIS: error= 6.82D-07 at cycle   5 NSaved=   5.
 NSaved= 5 IEnMin= 5 EnMin= -402.160701865707     IErMin= 5 ErrMin= 6.82D-07
 ErrMax= 6.82D-07  0.00D+00 EMaxC= 1.00D-01 BMatC= 2.12D-10 BMatP= 2.09D-09
 IDIUse=1 WtCom= 1.00D+00 WtEn= 0.00D+00
 Coeff-Com: -0.776D-02 0.608D-02 0.165D+00 0.345D+00 0.491D+00
 Coeff:     -0.776D-02 0.608D-02 0.165D+00 0.345D+00 0.491D+00
 Gap=     0.207 Goal=   None    Shift=    0.000
 RMSDP=1.10D-07 MaxDP=2.92D-06 DE=-1.50D-09 OVMax= 4.51D-06

 Cycle  11  Pass 1  IDiag  1:
 RMSU=  3.47D-08    CP:  1.00D+00  5.66D-01  8.57D-01  6.58D-01  5.23D-01
 E= -402.160701865905     Delta-E=       -0.000000000198 Rises=F Damp=F
 DIIS: error= 7.82D-08 at cycle   6 NSaved=   6.
 NSaved= 6 IEnMin= 6 EnMin= -402.160701865905     IErMin= 6 ErrMin= 7.82D-08
 ErrMax= 7.82D-08  0.00D+00 EMaxC= 1.00D-01 BMatC= 2.03D-12 BMatP= 2.12D-10
 IDIUse=1 WtCom= 1.00D+00 WtEn= 0.00D+00
 Coeff-Com: -0.362D-02 0.158D-02 0.603D-01 0.128D+00 0.201D+00 0.612D+00
 Coeff:     -0.362D-02 0.158D-02 0.603D-01 0.128D+00 0.201D+00 0.612D+00
 Gap=     0.207 Goal=   None    Shift=    0.000
 RMSDP=1.46D-08 MaxDP=4.99D-07 DE=-1.98D-10 OVMax= 1.05D-06

 Cycle  12  Pass 1  IDiag  1:
 RMSU=  1.31D-08    CP:  1.00D+00  5.67D-01  8.58D-01  6.56D-01  5.38D-01
                    CP:  8.64D-01
 E= -402.160701865907     Delta-E=       -0.000000000002 Rises=F Damp=F
 DIIS: error= 5.29D-08 at cycle   7 NSaved=   7.
 NSaved= 7 IEnMin= 7 EnMin= -402.160701865907     IErMin= 7 ErrMin= 5.29D-08
 ErrMax= 5.29D-08  0.00D+00 EMaxC= 1.00D-01 BMatC= 8.18D-13 BMatP= 2.03D-12
 IDIUse=1 WtCom= 1.00D+00 WtEn= 0.00D+00
 Coeff-Com: -0.123D-02-0.109D-03 0.116D-01 0.258D-01 0.500D-01 0.400D+00
 Coeff-Com:  0.514D+00
 Coeff:     -0.123D-02-0.109D-03 0.116D-01 0.258D-01 0.500D-01 0.400D+00
 Coeff:      0.514D+00
 Gap=     0.207 Goal=   None    Shift=    0.000
 RMSDP=7.50D-09 MaxDP=2.18D-07 DE=-1.71D-12 OVMax= 4.74D-07

 SCF Done:  E(RB3LYP) =  -402.160701866     A.U. after   12 cycles
            NFock= 12  Conv=0.75D-08     -V/T= 2.0095
 KE= 3.983614529122D+02 PE=-1.830823809841D+03 EE= 5.822548951722D+02
 Leave Link  502 at Tue Apr  9 11:54:32 2024, MaxMem=  7516192768 cpu:             107.9 elap:               3.9
 (Enter /public3/home/scg9909/software-scg9909/g16/l701.exe)
 ... and contract with generalized density number  0.
 Compute integral first derivatives.
 R6Disp: Adding Grimme-D3(BJ) dispersion energy 1st derivatives to the gradient.
 Leave Link  701 at Tue Apr  9 11:54:33 2024, MaxMem=  7516192768 cpu:               2.0 elap:               0.1
 (Enter /public3/home/scg9909/software-scg9909/g16/l702.exe)
 L702 exits ... SP integral derivatives will be done elsewhere.
 Leave Link  702 at Tue Apr  9 11:54:33 2024, MaxMem=  7516192768 cpu:               0.2 elap:               0.0
 (Enter /public3/home/scg9909/software-scg9909/g16/l703.exe)
 Integral derivatives from FoFJK, PRISM(SPDF).
 Compute integral first derivatives, UseDBF=F ICtDFT=           0.
 Calling FoFJK, ICntrl=      2127 FMM=F ISym2X=0 I1Cent= 0 IOpClX= 0 NMat=1 NMatS=1 NMatT=0.
 FoFJK:  IHMeth= 1 ICntrl=    2127 DoSepK=F KAlg= 0 I1Cent=           0 FoldK=F
 IRaf=         0 NMat=       1 IRICut=       1 DoRegI=T DoRafI=F ISym2E= 0 IDoP0=0 IntGTp=1.
 FoFCou: FMM=F IPFlag=           0 FMFlag=      100000 FMFlg1=         800
         NFxFlg=           0 DoJE=F BraDBF=F KetDBF=F FulRan=T
         wScrn=  0.000000 ICntrl=      2127 IOpCl=  0 I1Cent=           0 NGrid=           0
         NMat0=    1 NMatS0=      1 NMatT0=    0 NMatD0=    1 NMtDS0=    0 NMtDT0=    0
 Symmetry not used in FoFCou.
 Leave Link  703 at Tue Apr  9 11:54:33 2024, MaxMem=  7516192768 cpu:              20.2 elap:               0.7
 (Enter /public3/home/scg9909/software-scg9909/g16/l716.exe)
 Dipole        = 9.59039949D-01 1.16562398D+00 5.62926721D-02
 ***** Axes restored to original set *****
 -------------------------------------------------------------------
 Center     Atomic                   Forces (Hartrees/Bohr)
 Number     Number              X              Y              Z
 -------------------------------------------------------------------
      1        8           0.000098132   -0.000645624    0.001244041
      2        6           0.001245145    0.000581982   -0.000414009
      3        6           0.003666111   -0.002827479    0.002355238
      4        6          -0.002795096    0.002197117    0.000361927
      5        6           0.002797201   -0.003135366   -0.000338476
      6        6           0.000685920    0.001845452   -0.001390054
      7        6          -0.006879421    0.001951431   -0.001117443
      8        6           0.010060280   -0.000912775    0.004707097
      9        7          -0.006772019    0.000075103   -0.003158403
     10        1          -0.001091390    0.000301379   -0.000818582
     11        1          -0.000644586    0.000480116   -0.000095686
     12        1           0.000474147    0.000950855   -0.000760471
     13        1           0.000147187   -0.000340123    0.000603974
     14        1           0.001530247    0.000540499    0.000006262
     15        1          -0.000148726   -0.000275072    0.000535224
     16        1          -0.000826395   -0.000809960    0.000693695
     17        1          -0.000505572   -0.000173166   -0.000645571
     18        1          -0.001041163    0.000195631   -0.001768762
 -------------------------------------------------------------------
 Cartesian Forces:  Max     0.010060280 RMS     0.002412917
 Leave Link  716 at Tue Apr  9 11:54:33 2024, MaxMem=  7516192768 cpu:               0.2 elap:               0.0
 (Enter /public3/home/scg9909/software-scg9909/g16/l103.exe)

 GradGradGradGradGradGradGradGradGradGradGradGradGradGradGradGradGradGrad
 Berny optimization.
 Using GEDIIS/GDIIS optimizer.
 FormGI is forming the generalized inverse of G from B-inverse, IUseBI=4.
 Internal  Forces:  Max     0.005069115 RMS     0.000906479
 Search for a local minimum.
 Step number   2 out of a maximum of  108
 All quantities printed in internal units (Hartrees-Bohrs-Radians)
 RMS Force = .90648D-03 SwitMx=.10000D-02 MixMth= 2
 Mixed Optimization -- En-DIIS/RFO-DIIS
 Update second derivatives using D2CorX and points    1    2
 DE= -4.89D-03 DEPred=-5.11D-03 R= 9.57D-01
 TightC=F SS=  1.41D+00  RLast= 2.75D-01 DXNew= 5.0454D-01 8.2360D-01
 Trust test= 9.57D-01 RLast= 2.75D-01 DXMaxT set to 5.05D-01
 ITU=  1  0
 Use linear search instead of GDIIS.
     Eigenvalues ---    0.00560   0.00710   0.01042   0.01382   0.01515
     Eigenvalues ---    0.02072   0.02597   0.03226   0.03813   0.04125
     Eigenvalues ---    0.04447   0.04878   0.05501   0.05885   0.05997
     Eigenvalues ---    0.06674   0.07312   0.07458   0.08027   0.08182
     Eigenvalues ---    0.08820   0.10192   0.12629   0.15752   0.15928
     Eigenvalues ---    0.19447   0.22117   0.22441   0.25070   0.26733
     Eigenvalues ---    0.28343   0.29206   0.29698   0.30159   0.33876
     Eigenvalues ---    0.33971   0.34158   0.34328   0.34343   0.34387
     Eigenvalues ---    0.34516   0.34892   0.35790   0.36033   0.46016
     Eigenvalues ---    0.48390   0.55589   0.96097
 RFO step:  Lambda=-7.55242137D-04 EMin= 5.59912489D-03
 Quartic linear search produced a step of  0.04970.
 Iteration  1 RMS(Cart)=  0.02418937 RMS(Int)=  0.00029672
 Iteration  2 RMS(Cart)=  0.00035914 RMS(Int)=  0.00006604
 Iteration  3 RMS(Cart)=  0.00000004 RMS(Int)=  0.00006604
 ITry= 1 IFail=0 DXMaxC= 1.24D-01 DCOld= 1.00D+10 DXMaxT= 5.05D-01 DXLimC= 3.00D+00 Rises=F
 Variable       Old X    -DE/DX   Delta X   Delta X   Delta X     New X
                                 (Linear)    (Quad)   (Total)
    R1        2.30211  -0.00078  -0.00002  -0.00085  -0.00087   2.30124
    R2        2.90652   0.00025   0.00179  -0.00133   0.00053   2.90704
    R3        2.60568  -0.00155  -0.00034  -0.00334  -0.00367   2.60201
    R4        2.93295  -0.00233   0.00092  -0.01050  -0.00954   2.92341
    R5        2.06260   0.00032  -0.00010   0.00094   0.00085   2.06345
    R6        2.07339   0.00023   0.00028   0.00074   0.00102   2.07441
    R7        2.89741   0.00074   0.00181   0.00467   0.00642   2.90383
    R8        2.06903  -0.00100   0.00014  -0.00302  -0.00288   2.06615
    R9        2.07113   0.00055  -0.00010   0.00167   0.00157   2.07270
   R10        2.93801  -0.00236   0.00235  -0.00790  -0.00561   2.93241
   R11        2.77683   0.00051   0.00256   0.00548   0.00795   2.78477
   R12        2.07946  -0.00041   0.00020  -0.00124  -0.00104   2.07842
   R13        2.88448  -0.00077   0.00111  -0.00509  -0.00399   2.88049
   R14        2.07761   0.00059   0.00047   0.00183   0.00230   2.07991
   R15        2.06919  -0.00006   0.00008  -0.00018  -0.00010   2.06909
   R16        2.54235  -0.00507   0.00058  -0.01011  -0.00946   2.53289
   R17        2.04666  -0.00065   0.00026  -0.00185  -0.00159   2.04507
   R18        2.62866   0.00381   0.00311   0.00858   0.01173   2.64039
   R19        2.04386   0.00031  -0.00002   0.00089   0.00087   2.04473
    A1        2.23933  -0.00013   0.00192  -0.00064   0.00124   2.24057
    A2        2.20035   0.00050  -0.00205   0.00152  -0.00057   2.19978
    A3        1.84347  -0.00037   0.00016  -0.00107  -0.00105   1.84242
    A4        1.80711   0.00044   0.00054   0.00333   0.00383   1.81094
    A5        1.91789  -0.00017  -0.00095   0.00067  -0.00033   1.91755
    A6        1.91340  -0.00044   0.00041  -0.00471  -0.00433   1.90906
    A7        1.98896   0.00020   0.00236   0.00761   0.00996   1.99892
    A8        1.94246   0.00058  -0.00044   0.00351   0.00309   1.94556
    A9        1.89223  -0.00060  -0.00182  -0.01014  -0.01198   1.88025
   A10        1.78293   0.00023   0.00002   0.00421   0.00407   1.78700
   A11        1.98926   0.00004   0.00119  -0.00333  -0.00209   1.98716
   A12        1.90880  -0.00003  -0.00018   0.00358   0.00341   1.91222
   A13        1.98219  -0.00048   0.00049  -0.00795  -0.00740   1.97479
   A14        1.90979   0.00011  -0.00147   0.00251   0.00103   1.91082
   A15        1.88807   0.00014  -0.00012   0.00151   0.00137   1.88945
   A16        2.13408   0.00008   0.00127  -0.00540  -0.00408   2.13000
   A17        1.78523  -0.00080   0.00043   0.00040   0.00073   1.78597
   A18        1.90087   0.00069  -0.00147   0.01038   0.00892   1.90979
   A19        1.81149   0.00048   0.00012   0.00108   0.00116   1.81265
   A20        1.91761  -0.00044  -0.00088  -0.00338  -0.00426   1.91335
   A21        1.89663  -0.00007   0.00085  -0.00373  -0.00285   1.89378
   A22        1.79169  -0.00066   0.00062  -0.00420  -0.00374   1.78795
   A23        1.96080   0.00029  -0.00022  -0.00059  -0.00073   1.96007
   A24        1.94202  -0.00042  -0.00001  -0.00423  -0.00425   1.93777
   A25        1.93840   0.00026   0.00031   0.00230   0.00263   1.94103
   A26        1.96163   0.00091   0.00102   0.01128   0.01236   1.97400
   A27        1.87091  -0.00034  -0.00156  -0.00415  -0.00578   1.86514
   A28        1.92240   0.00257  -0.00065   0.00795   0.00725   1.92965
   A29        2.16862  -0.00119   0.00022  -0.00322  -0.00299   2.16563
   A30        2.18937  -0.00137   0.00051  -0.00412  -0.00362   2.18575
   A31        1.94213  -0.00131   0.00155  -0.00494  -0.00347   1.93866
   A32        2.25102   0.00214   0.00016   0.01290   0.01295   2.26397
   A33        2.08782  -0.00080  -0.00166  -0.00632  -0.00811   2.07971
   A34        1.99374   0.00056   0.00024   0.00303   0.00300   1.99674
   A35        2.29032   0.00042   0.00116  -0.00479  -0.00357   2.28675
   A36        1.93198  -0.00115  -0.00173  -0.00560  -0.00738   1.92460
    D1       -2.76311   0.00069  -0.00087   0.03606   0.03518  -2.72793
    D2       -0.63219   0.00109   0.00174   0.04731   0.04902  -0.58317
    D3        1.44578  -0.00002  -0.00084   0.03241   0.03157   1.47735
    D4        0.36966   0.00031   0.00058   0.01353   0.01414   0.38380
    D5        2.50058   0.00071   0.00320   0.02477   0.02798   2.52856
    D6       -1.70463  -0.00040   0.00061   0.00988   0.01053  -1.69410
    D7        3.13237  -0.00054  -0.00053  -0.04959  -0.05020   3.08217
    D8        0.41914   0.00023   0.00093  -0.02620  -0.02524   0.39390
    D9       -0.00066  -0.00017  -0.00206  -0.02770  -0.02982  -0.03047
   D10       -2.71389   0.00061  -0.00060  -0.00431  -0.00485  -2.71875
   D11       -0.57822  -0.00014   0.00116   0.00442   0.00566  -0.57257
   D12       -2.72358   0.00027  -0.00007   0.01313   0.01312  -2.71046
   D13        1.44402   0.00009  -0.00059   0.01082   0.01027   1.45429
   D14       -2.66099  -0.00033   0.00078  -0.00254  -0.00177  -2.66275
   D15        1.47684   0.00009  -0.00045   0.00617   0.00570   1.48254
   D16       -0.63875  -0.00010  -0.00097   0.00386   0.00285  -0.63589
   D17        1.47590  -0.00013   0.00175   0.00245   0.00423   1.48012
   D18       -0.66946   0.00029   0.00052   0.01116   0.01169  -0.65777
   D19       -2.78505   0.00010   0.00000   0.00885   0.00885  -2.77620
   D20        2.57799  -0.00024  -0.00122  -0.02199  -0.02325   2.55474
   D21        0.56704  -0.00027  -0.00236  -0.02080  -0.02315   0.54389
   D22       -1.43820  -0.00008  -0.00295  -0.02092  -0.02387  -1.46207
   D23       -1.55506  -0.00031   0.00049  -0.02757  -0.02712  -1.58218
   D24        2.71718  -0.00034  -0.00065  -0.02638  -0.02703   2.69015
   D25        0.71194  -0.00014  -0.00124  -0.02650  -0.02774   0.68420
   D26        0.55646  -0.00037  -0.00040  -0.02917  -0.02959   0.52687
   D27       -1.45448  -0.00040  -0.00154  -0.02799  -0.02950  -1.48398
   D28        2.82346  -0.00020  -0.00213  -0.02810  -0.03021   2.79325
   D29       -2.19709   0.00040  -0.00172  -0.02190  -0.02355  -2.22064
   D30       -0.11359   0.00045  -0.00108  -0.02198  -0.02302  -0.13661
   D31        1.98429  -0.00008  -0.00327  -0.03069  -0.03387   1.95042
   D32       -0.19927  -0.00022  -0.00039  -0.02352  -0.02393  -0.22320
   D33        1.88423  -0.00017   0.00024  -0.02360  -0.02340   1.86083
   D34       -2.30108  -0.00070  -0.00194  -0.03231  -0.03424  -2.33533
   D35        1.82620  -0.00025   0.00026  -0.02879  -0.02852   1.79768
   D36       -2.37348  -0.00020   0.00090  -0.02887  -0.02799  -2.40147
   D37       -0.27561  -0.00073  -0.00128  -0.03757  -0.03884  -0.31444
   D38       -0.37141   0.00047   0.00279   0.03253   0.03536  -0.33605
   D39        2.42968   0.00016   0.00222   0.01364   0.01590   2.44558
   D40       -2.60606   0.00055   0.00111   0.03794   0.03907  -2.56699
   D41        0.19503   0.00023   0.00054   0.01905   0.01961   0.21465
   D42        1.63692   0.00084   0.00168   0.04294   0.04463   1.68156
   D43       -1.84517   0.00053   0.00111   0.02405   0.02517  -1.82000
   D44        0.15104   0.00029  -0.00021   0.02240   0.02224   0.17329
   D45       -3.06711   0.00049   0.00079   0.03058   0.03145  -3.03566
   D46       -1.94801   0.00021  -0.00046   0.02441   0.02399  -1.92402
   D47        1.11702   0.00041   0.00054   0.03259   0.03320   1.15022
   D48        2.23926  -0.00015   0.00062   0.02041   0.02101   2.26028
   D49       -0.97889   0.00005   0.00162   0.02859   0.03022  -0.94868
   D50       -0.03589  -0.00005   0.00069  -0.01130  -0.01058  -0.04648
   D51        3.03296   0.00045   0.00138   0.01535   0.01692   3.04987
   D52       -3.09981  -0.00027  -0.00030  -0.01965  -0.01996  -3.11977
   D53       -0.03096   0.00023   0.00039   0.00699   0.00754  -0.02342
   D54        2.61782  -0.00050  -0.00192  -0.02632  -0.02830   2.58952
   D55       -0.10691  -0.00006  -0.00083  -0.00518  -0.00603  -0.11294
   D56       -0.45873  -0.00109  -0.00262  -0.05105  -0.05349  -0.51222
   D57        3.09973  -0.00065  -0.00153  -0.02991  -0.03123   3.06850
         Item               Value     Threshold  Converged?
 Maximum Force            0.005069     0.000450     NO 
 RMS     Force            0.000906     0.000300     NO 
 Maximum Displacement     0.123774     0.001800     NO 
 RMS     Displacement     0.024180     0.001200     NO 
 Predicted change in Energy=-3.943839D-04
 Lowest energy point so far.  Saving SCF results.
 GradGradGradGradGradGradGradGradGradGradGradGradGradGradGradGradGradGrad

 Leave Link  103 at Tue Apr  9 11:54:33 2024, MaxMem=  7516192768 cpu:               0.6 elap:               0.0
 (Enter /public3/home/scg9909/software-scg9909/g16/l202.exe)
                          Input orientation:                          
 ---------------------------------------------------------------------
 Center     Atomic      Atomic             Coordinates (Angstroms)
 Number     Number       Type             X           Y           Z
 ---------------------------------------------------------------------
      1          8           0       -1.364065    2.526470   -0.449891
      2          6           0       -1.125677    1.334878   -0.370931
      3          6           0       -2.094788    0.186932   -0.039963
      4          6           0       -1.171723   -0.927981    0.506047
      5          6           0        0.118156   -0.712622   -0.300861
      6          6           0        1.521715   -0.984555    0.302498
      7          6           0        2.253259    0.325893    0.035997
      8          6           0        1.397793    1.263300   -0.395256
      9          7           0        0.107731    0.743349   -0.528125
     10          1           0       -2.853290    0.533242    0.665060
     11          1           0       -2.609838   -0.130510   -0.955914
     12          1           0       -1.583201   -1.935175    0.397941
     13          1           0       -0.971601   -0.750901    1.569826
     14          1           0        0.029846   -1.218401   -1.273522
     15          1           0        1.477745   -1.204089    1.380127
     16          1           0        1.995670   -1.846605   -0.178206
     17          1           0        3.304961    0.484781    0.235617
     18          1           0        1.567207    2.312096   -0.600445
 ---------------------------------------------------------------------
                    Distance matrix (angstroms):
                    1          2          3          4          5
     1  O    0.000000
     2  C    1.217766   0.000000
     3  C    2.485042   1.538342   0.000000
     4  C    3.589435   2.427291   1.546999   0.000000
     5  C    3.565236   2.396724   2.402995   1.536642   0.000000
     6  C    4.606638   3.583568   3.816903   2.701710   1.551762
     7  C    4.261884   3.549768   4.350930   3.677452   2.398052
     8  C    3.037506   2.524602   3.671910   3.495207   2.355982
     9  N    2.313402   1.376922   2.323573   2.345178   1.473638
    10  H    2.726511   2.168074   1.091931   2.233411   3.363729
    11  H    2.977844   2.166172   1.097731   2.200333   2.865293
    12  H    4.546769   3.390241   2.226391   1.093361   2.208523
    13  H    3.869682   2.853200   2.175431   1.096828   2.165295
    14  H    4.079879   2.944340   2.830317   2.166790   1.099855
    15  H    5.034076   4.036133   4.088348   2.803557   2.217148
    16  H    5.521360   4.461142   4.570145   3.368152   2.196820
    17  H    5.141810   4.552046   5.414974   4.702098   3.446347
    18  H    2.942954   2.873892   4.270909   4.384536   3.367257
                    6          7          8          9         10
     6  C    0.000000
     7  C    1.524289   0.000000
     8  C    2.356920   1.340348   0.000000
     9  N    2.382212   2.257386   1.397234   0.000000
    10  H    4.644978   5.149326   4.441729   3.199294   0.000000
    11  H    4.402582   4.984166   4.279971   2.886489   1.768443
    12  H    3.248582   4.467869   4.443616   3.300202   2.788827
    13  H    2.806660   3.729858   3.678665   2.792694   2.451199
    14  H    2.182704   3.007200   2.966727   2.100034   3.890864
    15  H    1.100642   2.179209   3.040787   3.051373   4.720964
    16  H    1.094915   2.198177   3.174284   3.224068   5.466916
    17  H    2.311577   1.082206   2.154387   3.297337   6.173396
    18  H    3.418374   2.195615   1.082024   2.143890   4.930174
                   11         12         13         14         15
    11  H    0.000000
    12  H    2.478653   0.000000
    13  H    3.073771   1.774788   0.000000
    14  H    2.872684   2.430941   3.050587   0.000000
    15  H    4.828872   3.296751   2.498132   3.022991   0.000000
    16  H    4.975994   3.626032   3.613984   2.336412   1.763370
    17  H    6.064914   5.456799   4.647150   3.988071   2.738778
    18  H    4.851844   5.381556   4.531839   3.909082   4.036610
                   16         17         18
    16  H    0.000000
    17  H    2.705707   0.000000
    18  H    4.201982   2.656664   0.000000
 Stoichiometry    C7H9NO
 Framework group  C1[X(C7H9NO)]
 Deg. of freedom    48
 Full point group                 C1      NOp   1
 RotChk:  IX=0 Diff= 1.65D-02
 Largest Abelian subgroup         C1      NOp   1
 Largest concise Abelian subgroup C1      NOp   1
                         Standard orientation:                         
 ---------------------------------------------------------------------
 Center     Atomic      Atomic             Coordinates (Angstroms)
 Number     Number       Type             X           Y           Z
 ---------------------------------------------------------------------
      1          8           0       -2.002565   -1.548770   -0.161106
      2          6           0       -1.348541   -0.541144    0.038636
      3          6           0       -1.816395    0.923882    0.002499
      4          6           0       -0.519042    1.717561   -0.280620
      5          6           0        0.547272    0.871382    0.432277
      6          6           0        1.994390    0.741013   -0.112536
      7          6           0        2.187502   -0.769765   -0.173477
      8          6           0        1.024795   -1.401896    0.038792
      9          7           0        0.000299   -0.491586    0.310830
     10          1           0       -2.596250    1.045890   -0.751989
     11          1           0       -2.247642    1.192681    0.975528
     12          1           0       -0.549402    2.753435    0.067923
     13          1           0       -0.320231    1.723632   -1.359262
     14          1           0        0.576695    1.142054    1.497899
     15          1           0        2.108869    1.197586   -1.107448
     16          1           0        2.709889    1.239201    0.549814
     17          1           0        3.124052   -1.251901   -0.421647
     18          1           0        0.792553   -2.457519   -0.011206
 ---------------------------------------------------------------------
 Rotational constants (GHZ):           2.8939911           1.6945329           1.1302895
 Leave Link  202 at Tue Apr  9 11:54:33 2024, MaxMem=  7516192768 cpu:               0.1 elap:               0.0
 (Enter /public3/home/scg9909/software-scg9909/g16/l301.exe)
 Standard basis: 6-31G(d) (6D, 7F)
 Ernie: Thresh=  0.10000D-02 Tol=  0.10000D-05 Strict=F.
 There are   153 symmetry adapted cartesian basis functions of A   symmetry.
 There are   153 symmetry adapted basis functions of A   symmetry.
   153 basis functions,   288 primitive gaussians,   153 cartesian basis functions
    33 alpha electrons       33 beta electrons
       nuclear repulsion energy       448.1766687784 Hartrees.
 IExCor=  402 DFT=T Ex+Corr=B3LYP ExCW=0 ScaHFX=  0.200000
 ScaDFX=  0.800000  0.720000  1.000000  0.810000 ScalE2=  1.000000  1.000000
 IRadAn=      5 IRanWt=     -1 IRanGd=            0 ICorTp=0 IEmpDi=141
 NAtoms=   18 NActive=   18 NUniq=   18 SFac= 1.00D+00 NAtFMM=   60 NAOKFM=F Big=F
 Integral buffers will be    131072 words long.
 Raffenetti 2 integral format.
 Two-electron integral symmetry is turned on.
 R6Disp:  Grimme-D3(BJ) Dispersion energy=       -0.0311832440 Hartrees.
 Nuclear repulsion after empirical dispersion term =      448.1454855344 Hartrees.
 Leave Link  301 at Tue Apr  9 11:54:33 2024, MaxMem=  7516192768 cpu:               0.6 elap:               0.0
 (Enter /public3/home/scg9909/software-scg9909/g16/l302.exe)
 NPDir=0 NMtPBC=     1 NCelOv=     1 NCel=       1 NClECP=     1 NCelD=      1
         NCelK=      1 NCelE2=     1 NClLst=     1 CellRange=     0.0.
 One-electron integrals computed using PRISM.
 One-electron integral symmetry used in STVInt
 NBasis=   153 RedAO= T EigKep=  1.80D-03  NBF=   153
 NBsUse=   153 1.00D-06 EigRej= -1.00D+00 NBFU=   153
 Precomputing XC quadrature grid using
 IXCGrd= 4 IRadAn=           5 IRanWt=          -1 IRanGd=           0 AccXCQ= 0.00D+00.
 Generated NRdTot=       0 NPtTot=           0 NUsed=           0 NTot=          32
 NSgBfM=   153   153   153   153   153 MxSgAt=    18 MxSgA2=    18.
 Leave Link  302 at Tue Apr  9 11:54:34 2024, MaxMem=  7516192768 cpu:               2.6 elap:               0.1
 (Enter /public3/home/scg9909/software-scg9909/g16/l303.exe)
 DipDrv:  MaxL=1.
 Leave Link  303 at Tue Apr  9 11:54:34 2024, MaxMem=  7516192768 cpu:               0.3 elap:               0.0
 (Enter /public3/home/scg9909/software-scg9909/g16/l401.exe)
 Initial guess from the checkpoint file:  "/public3/home/scg9909/tmp/Gau-65552.chk"
 B after Tr=    -0.000000   -0.000000   -0.000000
         Rot=    0.999996    0.000130   -0.000866   -0.002824 Ang=   0.34 deg.
 Guess basis will be translated and rotated to current coordinates.
 JPrj=2 DoOrth=T DoCkMO=T.
 Generating alternative initial guess.
 ExpMin= 1.61D-01 ExpMax= 5.48D+03 ExpMxC= 8.25D+02 IAcc=3 IRadAn=         5 AccDes= 0.00D+00
 Harris functional with IExCor=  402 and IRadAn=       5 diagonalized for initial guess.
 HarFok:  IExCor=  402 AccDes= 0.00D+00 IRadAn=         5 IDoV= 1 UseB2=F ITyADJ=14
 ICtDFT=  3500011 ScaDFX=  1.000000  1.000000  1.000000  1.000000
 FoFCou: FMM=F IPFlag=           0 FMFlag=      100000 FMFlg1=           0
         NFxFlg=           0 DoJE=T BraDBF=F KetDBF=T FulRan=T
         wScrn=  0.000000 ICntrl=       500 IOpCl=  0 I1Cent=   200000004 NGrid=           0
         NMat0=    1 NMatS0=      1 NMatT0=    0 NMatD0=    1 NMtDS0=    0 NMtDT0=    0
 Petite list used in FoFCou.
 Harris En= -402.167087834845    
 Leave Link  401 at Tue Apr  9 11:54:34 2024, MaxMem=  7516192768 cpu:               9.9 elap:               0.4
 (Enter /public3/home/scg9909/software-scg9909/g16/l502.exe)
 Integral symmetry usage will be decided dynamically.
 Closed shell SCF:
 Using DIIS extrapolation, IDIIS=  1040.
 NGot=  7516192768 LenX=  7516139403 LenY=  7516115553
 Requested convergence on RMS density matrix=1.00D-08 within 128 cycles.
 Requested convergence on MAX density matrix=1.00D-06.
 Requested convergence on             energy=1.00D-06.
 No special actions if energy rises.
 Fock matrices will be formed incrementally for  20 cycles.
 Integral accuracy reduced to 1.0D-05 until final iterations.

 Cycle   1  Pass 0  IDiag  1:
 FoFJK:  IHMeth= 1 ICntrl=       0 DoSepK=F KAlg= 0 I1Cent=           0 FoldK=F
 IRaf= 970000000 NMat=       1 IRICut=       1 DoRegI=T DoRafI=F ISym2E= 0 IDoP0=0 IntGTp=1.
 FoFCou: FMM=F IPFlag=           0 FMFlag=      100000 FMFlg1=           0
         NFxFlg=           0 DoJE=F BraDBF=F KetDBF=F FulRan=T
         wScrn=  0.000000 ICntrl=         0 IOpCl=  0 I1Cent=           0 NGrid=           0
         NMat0=    1 NMatS0=      1 NMatT0=    0 NMatD0=    1 NMtDS0=    0 NMtDT0=    0
 Symmetry not used in FoFCou.
 E= -402.159417148504    
 DIIS: error= 1.84D-03 at cycle   1 NSaved=   1.
 NSaved= 1 IEnMin= 1 EnMin= -402.159417148504     IErMin= 1 ErrMin= 1.84D-03
 ErrMax= 1.84D-03  0.00D+00 EMaxC= 1.00D-01 BMatC= 8.87D-04 BMatP= 8.87D-04
 IDIUse=3 WtCom= 9.82D-01 WtEn= 1.84D-02
 Coeff-Com:  0.100D+01
 Coeff-En:   0.100D+01
 Coeff:      0.100D+01
 Gap=     1.664 Goal=   None    Shift=    0.000
 GapD=    1.664 DampG=2.000 DampE=1.000 DampFc=2.0000 IDamp=-1.
 RMSDP=3.32D-04 MaxDP=7.31D-03              OVMax= 1.15D-02

 Cycle   2  Pass 0  IDiag  1:
 RMSU=  3.32D-04    CP:  1.00D+00
 E= -402.161179592325     Delta-E=       -0.001762443821 Rises=F Damp=F
 DIIS: error= 2.34D-04 at cycle   2 NSaved=   2.
 NSaved= 2 IEnMin= 2 EnMin= -402.161179592325     IErMin= 2 ErrMin= 2.34D-04
 ErrMax= 2.34D-04  0.00D+00 EMaxC= 1.00D-01 BMatC= 1.93D-05 BMatP= 8.87D-04
 IDIUse=3 WtCom= 9.98D-01 WtEn= 2.34D-03
 Coeff-Com: -0.553D-01 0.106D+01
 Coeff-En:   0.000D+00 0.100D+01
 Coeff:     -0.552D-01 0.106D+01
 Gap=     0.209 Goal=   None    Shift=    0.000
 RMSDP=6.19D-05 MaxDP=1.42D-03 DE=-1.76D-03 OVMax= 3.45D-03

 Cycle   3  Pass 0  IDiag  1:
 RMSU=  5.68D-05    CP:  1.00D+00  1.07D+00
 E= -402.161187969151     Delta-E=       -0.000008376827 Rises=F Damp=F
 DIIS: error= 2.86D-04 at cycle   3 NSaved=   3.
 NSaved= 3 IEnMin= 3 EnMin= -402.161187969151     IErMin= 2 ErrMin= 2.34D-04
 ErrMax= 2.86D-04  0.00D+00 EMaxC= 1.00D-01 BMatC= 2.28D-05 BMatP= 1.93D-05
 IDIUse=3 WtCom= 3.72D-01 WtEn= 6.28D-01
 Coeff-Com: -0.453D-01 0.583D+00 0.463D+00
 Coeff-En:   0.000D+00 0.355D+00 0.645D+00
 Coeff:     -0.168D-01 0.439D+00 0.577D+00
 Gap=     0.208 Goal=   None    Shift=    0.000
 RMSDP=4.95D-05 MaxDP=1.55D-03 DE=-8.38D-06 OVMax= 3.30D-03

 Cycle   4  Pass 0  IDiag  1:
 RMSU=  3.24D-05    CP:  1.00D+00  1.09D+00  3.50D-01
 E= -402.161197065739     Delta-E=       -0.000009096588 Rises=F Damp=F
 DIIS: error= 2.41D-04 at cycle   4 NSaved=   4.
 NSaved= 4 IEnMin= 4 EnMin= -402.161197065739     IErMin= 2 ErrMin= 2.34D-04
 ErrMax= 2.41D-04  0.00D+00 EMaxC= 1.00D-01 BMatC= 1.24D-05 BMatP= 1.93D-05
 IDIUse=3 WtCom= 9.98D-01 WtEn= 2.41D-03
 Coeff-Com: -0.176D-01 0.186D+00 0.411D+00 0.421D+00
 Coeff-En:   0.000D+00 0.000D+00 0.389D+00 0.611D+00
 Coeff:     -0.175D-01 0.186D+00 0.410D+00 0.421D+00
 Gap=     0.209 Goal=   None    Shift=    0.000
 RMSDP=2.37D-05 MaxDP=6.86D-04 DE=-9.10D-06 OVMax= 1.60D-03

 Cycle   5  Pass 0  IDiag  1:
 RMSU=  7.91D-06    CP:  1.00D+00  1.09D+00  5.84D-01  4.50D-01
 E= -402.161208628535     Delta-E=       -0.000011562796 Rises=F Damp=F
 DIIS: error= 4.54D-05 at cycle   5 NSaved=   5.
 NSaved= 5 IEnMin= 5 EnMin= -402.161208628535     IErMin= 5 ErrMin= 4.54D-05
 ErrMax= 4.54D-05  0.00D+00 EMaxC= 1.00D-01 BMatC= 2.59D-07 BMatP= 1.24D-05
 IDIUse=1 WtCom= 1.00D+00 WtEn= 0.00D+00
 Coeff-Com: -0.614D-02 0.577D-01 0.195D+00 0.242D+00 0.512D+00
 Coeff:     -0.614D-02 0.577D-01 0.195D+00 0.242D+00 0.512D+00
 Gap=     0.209 Goal=   None    Shift=    0.000
 RMSDP=3.89D-06 MaxDP=1.53D-04 DE=-1.16D-05 OVMax= 1.67D-04

 Initial convergence to 1.0D-05 achieved.  Increase integral accuracy.
 Cycle   6  Pass 1  IDiag  1:
 E= -402.161211255036     Delta-E=       -0.000002626501 Rises=F Damp=F
 DIIS: error= 1.97D-05 at cycle   1 NSaved=   1.
 NSaved= 1 IEnMin= 1 EnMin= -402.161211255036     IErMin= 1 ErrMin= 1.97D-05
 ErrMax= 1.97D-05  0.00D+00 EMaxC= 1.00D-01 BMatC= 5.53D-08 BMatP= 5.53D-08
 IDIUse=1 WtCom= 1.00D+00 WtEn= 0.00D+00
 Coeff-Com:  0.100D+01
 Coeff:      0.100D+01
 Gap=     0.209 Goal=   None    Shift=    0.000
 RMSDP=3.89D-06 MaxDP=1.53D-04 DE=-2.63D-06 OVMax= 1.85D-04

 Cycle   7  Pass 1  IDiag  1:
 RMSU=  4.81D-06    CP:  1.00D+00
 E= -402.161211166965     Delta-E=        0.000000088071 Rises=F Damp=F
 DIIS: error= 4.28D-05 at cycle   2 NSaved=   2.
 NSaved= 2 IEnMin= 1 EnMin= -402.161211255036     IErMin= 1 ErrMin= 1.97D-05
 ErrMax= 4.28D-05  0.00D+00 EMaxC= 1.00D-01 BMatC= 1.71D-07 BMatP= 5.53D-08
 IDIUse=1 WtCom= 1.00D+00 WtEn= 0.00D+00
 Coeff-Com:  0.648D+00 0.352D+00
 Coeff:      0.648D+00 0.352D+00
 Gap=     0.209 Goal=   None    Shift=    0.000
 RMSDP=2.72D-06 MaxDP=1.03D-04 DE= 8.81D-08 OVMax= 1.33D-04

 Cycle   8  Pass 1  IDiag  1:
 RMSU=  1.71D-06    CP:  1.00D+00  5.62D-01
 E= -402.161211300475     Delta-E=       -0.000000133511 Rises=F Damp=F
 DIIS: error= 4.40D-06 at cycle   3 NSaved=   3.
 NSaved= 3 IEnMin= 3 EnMin= -402.161211300475     IErMin= 3 ErrMin= 4.40D-06
 ErrMax= 4.40D-06  0.00D+00 EMaxC= 1.00D-01 BMatC= 2.88D-09 BMatP= 5.53D-08
 IDIUse=1 WtCom= 1.00D+00 WtEn= 0.00D+00
 Coeff-Com:  0.120D+00 0.135D+00 0.744D+00
 Coeff:      0.120D+00 0.135D+00 0.744D+00
 Gap=     0.209 Goal=   None    Shift=    0.000
 RMSDP=5.80D-07 MaxDP=1.74D-05 DE=-1.34D-07 OVMax= 2.67D-05

 Cycle   9  Pass 1  IDiag  1:
 RMSU=  5.15D-07    CP:  1.00D+00  5.93D-01  8.75D-01
 E= -402.161211301462     Delta-E=       -0.000000000986 Rises=F Damp=F
 DIIS: error= 2.07D-06 at cycle   4 NSaved=   4.
 NSaved= 4 IEnMin= 4 EnMin= -402.161211301462     IErMin= 4 ErrMin= 2.07D-06
 ErrMax= 2.07D-06  0.00D+00 EMaxC= 1.00D-01 BMatC= 1.59D-09 BMatP= 2.88D-09
 IDIUse=1 WtCom= 1.00D+00 WtEn= 0.00D+00
 Coeff-Com:  0.474D-02 0.496D-01 0.506D+00 0.439D+00
 Coeff:      0.474D-02 0.496D-01 0.506D+00 0.439D+00
 Gap=     0.209 Goal=   None    Shift=    0.000
 RMSDP=2.82D-07 MaxDP=1.01D-05 DE=-9.86D-10 OVMax= 1.63D-05

 Cycle  10  Pass 1  IDiag  1:
 RMSU=  1.24D-07    CP:  1.00D+00  5.96D-01  9.13D-01  5.27D-01
 E= -402.161211302804     Delta-E=       -0.000000001343 Rises=F Damp=F
 DIIS: error= 4.74D-07 at cycle   5 NSaved=   5.
 NSaved= 5 IEnMin= 5 EnMin= -402.161211302804     IErMin= 5 ErrMin= 4.74D-07
 ErrMax= 4.74D-07  0.00D+00 EMaxC= 1.00D-01 BMatC= 6.72D-11 BMatP= 1.59D-09
 IDIUse=1 WtCom= 1.00D+00 WtEn= 0.00D+00
 Coeff-Com: -0.673D-02 0.180D-01 0.228D+00 0.244D+00 0.517D+00
 Coeff:     -0.673D-02 0.180D-01 0.228D+00 0.244D+00 0.517D+00
 Gap=     0.209 Goal=   None    Shift=    0.000
 RMSDP=6.55D-08 MaxDP=2.18D-06 DE=-1.34D-09 OVMax= 3.94D-06

 Cycle  11  Pass 1  IDiag  1:
 RMSU=  3.28D-08    CP:  1.00D+00  5.98D-01  9.20D-01  5.35D-01  5.58D-01
 E= -402.161211302862     Delta-E=       -0.000000000058 Rises=F Damp=F
 DIIS: error= 1.38D-07 at cycle   6 NSaved=   6.
 NSaved= 6 IEnMin= 6 EnMin= -402.161211302862     IErMin= 6 ErrMin= 1.38D-07
 ErrMax= 1.38D-07  0.00D+00 EMaxC= 1.00D-01 BMatC= 5.51D-12 BMatP= 6.72D-11
 IDIUse=1 WtCom= 1.00D+00 WtEn= 0.00D+00
 Coeff-Com: -0.424D-02 0.723D-02 0.965D-01 0.109D+00 0.299D+00 0.493D+00
 Coeff:     -0.424D-02 0.723D-02 0.965D-01 0.109D+00 0.299D+00 0.493D+00
 Gap=     0.209 Goal=   None    Shift=    0.000
 RMSDP=1.69D-08 MaxDP=6.01D-07 DE=-5.80D-11 OVMax= 1.15D-06

 Cycle  12  Pass 1  IDiag  1:
 RMSU=  1.11D-08    CP:  1.00D+00  5.99D-01  9.20D-01  5.30D-01  5.93D-01
                    CP:  6.86D-01
 E= -402.161211302868     Delta-E=       -0.000000000005 Rises=F Damp=F
 DIIS: error= 2.28D-08 at cycle   7 NSaved=   7.
 NSaved= 7 IEnMin= 7 EnMin= -402.161211302868     IErMin= 7 ErrMin= 2.28D-08
 ErrMax= 2.28D-08  0.00D+00 EMaxC= 1.00D-01 BMatC= 2.28D-13 BMatP= 5.51D-12
 IDIUse=1 WtCom= 1.00D+00 WtEn= 0.00D+00
 Coeff-Com: -0.931D-03 0.901D-03 0.121D-01 0.141D-01 0.591D-01 0.197D+00
 Coeff-Com:  0.718D+00
 Coeff:     -0.931D-03 0.901D-03 0.121D-01 0.141D-01 0.591D-01 0.197D+00
 Coeff:      0.718D+00
 Gap=     0.209 Goal=   None    Shift=    0.000
 RMSDP=4.46D-09 MaxDP=9.01D-08 DE=-5.46D-12 OVMax= 2.10D-07

 SCF Done:  E(RB3LYP) =  -402.161211303     A.U. after   12 cycles
            NFock= 12  Conv=0.45D-08     -V/T= 2.0095
 KE= 3.983713758641D+02 PE=-1.831043919158D+03 EE= 5.823658464570D+02
 Leave Link  502 at Tue Apr  9 11:54:38 2024, MaxMem=  7516192768 cpu:             106.7 elap:               3.8
 (Enter /public3/home/scg9909/software-scg9909/g16/l701.exe)
 ... and contract with generalized density number  0.
 Compute integral first derivatives.
 R6Disp: Adding Grimme-D3(BJ) dispersion energy 1st derivatives to the gradient.
 Leave Link  701 at Tue Apr  9 11:54:38 2024, MaxMem=  7516192768 cpu:               2.0 elap:               0.1
 (Enter /public3/home/scg9909/software-scg9909/g16/l702.exe)
 L702 exits ... SP integral derivatives will be done elsewhere.
 Leave Link  702 at Tue Apr  9 11:54:38 2024, MaxMem=  7516192768 cpu:               0.2 elap:               0.0
 (Enter /public3/home/scg9909/software-scg9909/g16/l703.exe)
 Integral derivatives from FoFJK, PRISM(SPDF).
 Compute integral first derivatives, UseDBF=F ICtDFT=           0.
 Calling FoFJK, ICntrl=      2127 FMM=F ISym2X=0 I1Cent= 0 IOpClX= 0 NMat=1 NMatS=1 NMatT=0.
 FoFJK:  IHMeth= 1 ICntrl=    2127 DoSepK=F KAlg= 0 I1Cent=           0 FoldK=F
 IRaf=         0 NMat=       1 IRICut=       1 DoRegI=T DoRafI=F ISym2E= 0 IDoP0=0 IntGTp=1.
 FoFCou: FMM=F IPFlag=           0 FMFlag=      100000 FMFlg1=         800
         NFxFlg=           0 DoJE=F BraDBF=F KetDBF=F FulRan=T
         wScrn=  0.000000 ICntrl=      2127 IOpCl=  0 I1Cent=           0 NGrid=           0
         NMat0=    1 NMatS0=      1 NMatT0=    0 NMatD0=    1 NMtDS0=    0 NMtDT0=    0
 Symmetry not used in FoFCou.
 Leave Link  703 at Tue Apr  9 11:54:39 2024, MaxMem=  7516192768 cpu:              20.1 elap:               0.7
 (Enter /public3/home/scg9909/software-scg9909/g16/l716.exe)
 Dipole        = 9.63762336D-01 1.16966701D+00 8.92838848D-02
 ***** Axes restored to original set *****
 -------------------------------------------------------------------
 Center     Atomic                   Forces (Hartrees/Bohr)
 Number     Number              X              Y              Z
 -------------------------------------------------------------------
      1        8          -0.000590769    0.000112392   -0.000422956
      2        6           0.001449202   -0.000108672    0.002697914
      3        6           0.000780965   -0.000537279    0.000058281
      4        6          -0.000502382    0.001741020    0.000123339
      5        6           0.000431694   -0.000586760   -0.000056512
      6        6          -0.000495751    0.000712518   -0.000779446
      7        6          -0.001562149   -0.000521822    0.000294132
      8        6           0.002363999    0.000698921    0.001291357
      9        7          -0.002399810   -0.001651710   -0.002344139
     10        1          -0.000178113    0.000023643   -0.000046181
     11        1          -0.000074178   -0.000049966   -0.000152122
     12        1          -0.000037204    0.000030981   -0.000279747
     13        1           0.000108879   -0.000378078   -0.000058686
     14        1           0.000695508    0.000311139    0.000020623
     15        1          -0.000079416    0.000427735    0.000089603
     16        1           0.000144363   -0.000002870    0.000287798
     17        1           0.000203990   -0.000019982   -0.000089152
     18        1          -0.000258828   -0.000201211   -0.000634104
 -------------------------------------------------------------------
 Cartesian Forces:  Max     0.002697914 RMS     0.000885047
 Leave Link  716 at Tue Apr  9 11:54:39 2024, MaxMem=  7516192768 cpu:               0.2 elap:               0.0
 (Enter /public3/home/scg9909/software-scg9909/g16/l103.exe)

 GradGradGradGradGradGradGradGradGradGradGradGradGradGradGradGradGradGrad
 Berny optimization.
 Using GEDIIS/GDIIS optimizer.
 FormGI is forming the generalized inverse of G from B-inverse, IUseBI=4.
 Internal  Forces:  Max     0.001311086 RMS     0.000311667
 Search for a local minimum.
 Step number   3 out of a maximum of  108
 All quantities printed in internal units (Hartrees-Bohrs-Radians)
 RMS Force = .31167D-03 SwitMx=.10000D-02 MixMth= 2
 Mixed Optimization -- En-DIIS/RFO-DIIS
 Swapping is turned off.
 Update second derivatives using D2CorX and points    1    2    3
 DE= -5.09D-04 DEPred=-3.94D-04 R= 1.29D+00
 TightC=F SS=  1.41D+00  RLast= 2.06D-01 DXNew= 8.4853D-01 6.1680D-01
 Trust test= 1.29D+00 RLast= 2.06D-01 DXMaxT set to 6.17D-01
 ITU=  1  1  0
     Eigenvalues ---    0.00478   0.00582   0.01137   0.01320   0.01441
     Eigenvalues ---    0.02076   0.02551   0.03211   0.03824   0.04079
     Eigenvalues ---    0.04452   0.04889   0.05486   0.05850   0.06147
     Eigenvalues ---    0.06706   0.07322   0.07426   0.08045   0.08363
     Eigenvalues ---    0.08854   0.10238   0.12562   0.15695   0.15946
     Eigenvalues ---    0.19445   0.22187   0.22381   0.25300   0.26549
     Eigenvalues ---    0.28326   0.28895   0.29554   0.30257   0.33869
     Eigenvalues ---    0.34040   0.34277   0.34327   0.34343   0.34504
     Eigenvalues ---    0.34533   0.35787   0.36009   0.36385   0.45754
     Eigenvalues ---    0.47881   0.55463   0.96220
 En-DIIS/RFO-DIIS/Sim-DIIS IScMMF=       -3 using points:     3    2
 RFO step:  Lambda=-4.12130944D-04.
 NNeg= 0 NGDIIS= 2 SimSw=  2.50D-03 Rises=F DC= -5.09D-04 SmlDif=  1.00D-05
 NRisDI= 0 DoIntr=F SqrtH=F CThrHd= 10.0 CDAdj=  3.0
 RMS Error=  0.2320511811D-01 NUsed= 2 OKEnD=T EnDIS=F
 InvSVX:  RCond= 8.95D-03 Info=           0 Equed=N FErr=  5.57D-15 BErr=  0.00D+00
 DidBck=F Rises=F RFO-DIIS coefs:    2.01378   -1.01378
 Iteration  1 RMS(Cart)=  0.03030176 RMS(Int)=  0.00047111
 Iteration  2 RMS(Cart)=  0.00055058 RMS(Int)=  0.00019195
 Iteration  3 RMS(Cart)=  0.00000014 RMS(Int)=  0.00019195
 ITry= 1 IFail=0 DXMaxC= 1.21D-01 DCOld= 1.00D+10 DXMaxT= 6.17D-01 DXLimC= 3.00D+00 Rises=F
 Variable       Old X    -DE/DX   Delta X   Delta X   Delta X     New X
                                 (Linear)    (Quad)   (Total)
    R1        2.30124   0.00025  -0.00088   0.00091   0.00003   2.30128
    R2        2.90704  -0.00027   0.00054  -0.00249  -0.00171   2.90534
    R3        2.60201  -0.00045  -0.00372   0.00074  -0.00295   2.59906
    R4        2.92341  -0.00101  -0.00967  -0.00016  -0.00972   2.91369
    R5        2.06345   0.00010   0.00086  -0.00015   0.00071   2.06416
    R6        2.07441   0.00018   0.00104   0.00031   0.00135   2.07576
    R7        2.90383  -0.00012   0.00651  -0.00200   0.00433   2.90816
    R8        2.06615   0.00001  -0.00292   0.00192  -0.00099   2.06516
    R9        2.07270  -0.00010   0.00159  -0.00146   0.00013   2.07283
   R10        2.93241  -0.00088  -0.00569   0.00045  -0.00539   2.92702
   R11        2.78477  -0.00086   0.00805  -0.00383   0.00383   2.78860
   R12        2.07842  -0.00022  -0.00105  -0.00017  -0.00122   2.07720
   R13        2.88049  -0.00076  -0.00404  -0.00168  -0.00568   2.87480
   R14        2.07991   0.00000   0.00233  -0.00108   0.00125   2.08117
   R15        2.06909  -0.00006  -0.00011  -0.00014  -0.00025   2.06884
   R16        2.53289  -0.00069  -0.00959   0.00414  -0.00523   2.52766
   R17        2.04507   0.00018  -0.00161   0.00189   0.00028   2.04535
   R18        2.64039   0.00131   0.01189  -0.00100   0.01100   2.65139
   R19        2.04473  -0.00012   0.00089  -0.00102  -0.00014   2.04459
    A1        2.24057  -0.00046   0.00126  -0.00120  -0.00031   2.24026
    A2        2.19978   0.00060  -0.00058   0.00361   0.00265   2.20242
    A3        1.84242  -0.00013  -0.00107  -0.00029  -0.00221   1.84021
    A4        1.81094  -0.00012   0.00388  -0.00570  -0.00199   1.80895
    A5        1.91755   0.00002  -0.00034   0.00090   0.00061   1.91816
    A6        1.90906   0.00006  -0.00439   0.00317  -0.00125   1.90781
    A7        1.99892   0.00003   0.01009  -0.00238   0.00768   2.00660
    A8        1.94556   0.00008   0.00314  -0.00192   0.00132   1.94688
    A9        1.88025  -0.00007  -0.01214   0.00581  -0.00638   1.87387
   A10        1.78700   0.00019   0.00413   0.00016   0.00382   1.79082
   A11        1.98716  -0.00005  -0.00212  -0.00076  -0.00266   1.98450
   A12        1.91222   0.00006   0.00346   0.00226   0.00574   1.91796
   A13        1.97479  -0.00021  -0.00751   0.00052  -0.00678   1.96801
   A14        1.91082  -0.00001   0.00104  -0.00065   0.00041   1.91122
   A15        1.88945   0.00002   0.00139  -0.00136  -0.00004   1.88940
   A16        2.13000  -0.00009  -0.00414  -0.00011  -0.00404   2.12596
   A17        1.78597  -0.00022   0.00074   0.00122   0.00166   1.78762
   A18        1.90979   0.00028   0.00905  -0.00053   0.00855   1.91834
   A19        1.81265   0.00009   0.00118  -0.00303  -0.00189   1.81076
   A20        1.91335  -0.00004  -0.00431   0.00214  -0.00218   1.91117
   A21        1.89378  -0.00005  -0.00289   0.00004  -0.00279   1.89098
   A22        1.78795   0.00024  -0.00379   0.00294  -0.00135   1.78660
   A23        1.96007  -0.00010  -0.00074  -0.00156  -0.00212   1.95795
   A24        1.93777   0.00011  -0.00431   0.00696   0.00272   1.94049
   A25        1.94103  -0.00019   0.00267  -0.00563  -0.00289   1.93814
   A26        1.97400  -0.00013   0.01253  -0.00649   0.00625   1.98024
   A27        1.86514   0.00007  -0.00586   0.00351  -0.00245   1.86268
   A28        1.92965   0.00032   0.00735  -0.00452   0.00271   1.93237
   A29        2.16563  -0.00015  -0.00303   0.00171  -0.00127   2.16436
   A30        2.18575  -0.00016  -0.00367   0.00238  -0.00126   2.18449
   A31        1.93866  -0.00058  -0.00352   0.00043  -0.00329   1.93537
   A32        2.26397   0.00067   0.01313  -0.00285   0.01016   2.27413
   A33        2.07971  -0.00009  -0.00822   0.00198  -0.00637   2.07334
   A34        1.99674   0.00024   0.00304  -0.00024   0.00192   1.99866
   A35        2.28675  -0.00031  -0.00362  -0.00501  -0.00826   2.27849
   A36        1.92460  -0.00009  -0.00748   0.00114  -0.00663   1.91797
    D1       -2.72793  -0.00012   0.03566  -0.04966  -0.01393  -2.74186
    D2       -0.58317  -0.00014   0.04969  -0.05537  -0.00566  -0.58884
    D3        1.47735  -0.00018   0.03201  -0.04587  -0.01379   1.46356
    D4        0.38380   0.00034   0.01434   0.02642   0.04083   0.42463
    D5        2.52856   0.00031   0.02836   0.02072   0.04910   2.57766
    D6       -1.69410   0.00028   0.01068   0.03021   0.04096  -1.65314
    D7        3.08217   0.00003  -0.05089   0.04210  -0.00880   3.07337
    D8        0.39390   0.00047  -0.02559   0.05340   0.02797   0.42187
    D9       -0.03047  -0.00039  -0.03023  -0.03156  -0.06194  -0.09241
   D10       -2.71875   0.00005  -0.00492  -0.02026  -0.02517  -2.74391
   D11       -0.57257  -0.00015   0.00573  -0.01333  -0.00744  -0.58001
   D12       -2.71046   0.00000   0.01330  -0.01366  -0.00026  -2.71072
   D13        1.45429  -0.00004   0.01042  -0.01304  -0.00259   1.45170
   D14       -2.66275  -0.00011  -0.00179  -0.00935  -0.01105  -2.67380
   D15        1.48254   0.00004   0.00578  -0.00968  -0.00387   1.47867
   D16       -0.63589  -0.00000   0.00289  -0.00906  -0.00620  -0.64209
   D17        1.48012  -0.00011   0.00428  -0.01378  -0.00942   1.47071
   D18       -0.65777   0.00004   0.01185  -0.01411  -0.00224  -0.66001
   D19       -2.77620  -0.00000   0.00897  -0.01349  -0.00457  -2.78077
   D20        2.55474  -0.00017  -0.02357  -0.00577  -0.02958   2.52515
   D21        0.54389  -0.00006  -0.02347  -0.00274  -0.02629   0.51760
   D22       -1.46207  -0.00001  -0.02419  -0.00317  -0.02743  -1.48949
   D23       -1.58218  -0.00022  -0.02750  -0.00631  -0.03398  -1.61616
   D24        2.69015  -0.00011  -0.02740  -0.00328  -0.03069   2.65947
   D25        0.68420  -0.00006  -0.02812  -0.00371  -0.03183   0.65237
   D26        0.52687  -0.00033  -0.03000  -0.00815  -0.03825   0.48862
   D27       -1.48398  -0.00023  -0.02990  -0.00513  -0.03496  -1.51894
   D28        2.79325  -0.00017  -0.03063  -0.00555  -0.03609   2.75716
   D29       -2.22064   0.00015  -0.02388  -0.00943  -0.03307  -2.25371
   D30       -0.13661   0.00001  -0.02334  -0.01511  -0.03830  -0.17491
   D31        1.95042   0.00011  -0.03433  -0.00690  -0.04098   1.90944
   D32       -0.22320  -0.00011  -0.02426  -0.01033  -0.03464  -0.25785
   D33        1.86083  -0.00025  -0.02372  -0.01601  -0.03988   1.82095
   D34       -2.33533  -0.00015  -0.03472  -0.00779  -0.04256  -2.37788
   D35        1.79768  -0.00015  -0.02892  -0.01089  -0.03979   1.75789
   D36       -2.40147  -0.00028  -0.02838  -0.01658  -0.04502  -2.44650
   D37       -0.31444  -0.00019  -0.03937  -0.00836  -0.04770  -0.36215
   D38       -0.33605   0.00039   0.03584   0.02246   0.05835  -0.27770
   D39        2.44558  -0.00004   0.01612   0.01193   0.02812   2.47370
   D40       -2.56699   0.00056   0.03961   0.02341   0.06301  -2.50398
   D41        0.21465   0.00013   0.01988   0.01288   0.03278   0.24742
   D42        1.68156   0.00059   0.04525   0.02245   0.06767   1.74922
   D43       -1.82000   0.00016   0.02552   0.01193   0.03743  -1.78256
   D44        0.17329  -0.00000   0.02255   0.00434   0.02695   0.20024
   D45       -3.03566   0.00004   0.03188  -0.00219   0.02982  -3.00584
   D46       -1.92402   0.00008   0.02432   0.00719   0.03159  -1.89243
   D47        1.15022   0.00012   0.03366   0.00067   0.03446   1.18467
   D48        2.26028   0.00021   0.02130   0.01124   0.03249   2.29277
   D49       -0.94868   0.00025   0.03063   0.00472   0.03536  -0.91332
   D50       -0.04648   0.00011  -0.01073   0.00380  -0.00688  -0.05335
   D51        3.04987   0.00014   0.01715  -0.00808   0.00938   3.05925
   D52       -3.11977   0.00007  -0.02023   0.01045  -0.00979  -3.12955
   D53       -0.02342   0.00010   0.00764  -0.00143   0.00647  -0.01695
   D54        2.58952  -0.00051  -0.02868  -0.02227  -0.05097   2.53855
   D55       -0.11294  -0.00015  -0.00611  -0.01113  -0.01723  -0.13017
   D56       -0.51222  -0.00056  -0.05423  -0.01167  -0.06559  -0.57781
   D57        3.06850  -0.00021  -0.03166  -0.00053  -0.03185   3.03665
         Item               Value     Threshold  Converged?
 Maximum Force            0.001311     0.000450     NO 
 RMS     Force            0.000312     0.000300     NO 
 Maximum Displacement     0.120843     0.001800     NO 
 RMS     Displacement     0.030275     0.001200     NO 
 Predicted change in Energy=-2.192732D-04
 Lowest energy point so far.  Saving SCF results.
 GradGradGradGradGradGradGradGradGradGradGradGradGradGradGradGradGradGrad

 Leave Link  103 at Tue Apr  9 11:54:39 2024, MaxMem=  7516192768 cpu:               0.6 elap:               0.0
 (Enter /public3/home/scg9909/software-scg9909/g16/l202.exe)
                          Input orientation:                          
 ---------------------------------------------------------------------
 Center     Atomic      Atomic             Coordinates (Angstroms)
 Number     Number       Type             X           Y           Z
 ---------------------------------------------------------------------
      1          8           0       -1.356025    2.532437   -0.385943
      2          6           0       -1.117754    1.339854   -0.322942
      3          6           0       -2.092069    0.186215   -0.033902
      4          6           0       -1.177938   -0.939088    0.490865
      5          6           0        0.121306   -0.713870   -0.302580
      6          6           0        1.514842   -0.970337    0.323043
      7          6           0        2.251869    0.325287    0.018995
      8          6           0        1.402823    1.260675   -0.420647
      9          7           0        0.103501    0.743457   -0.533815
     10          1           0       -2.863486    0.517271    0.664988
     11          1           0       -2.596561   -0.105100   -0.965141
     12          1           0       -1.590413   -1.941370    0.350923
     13          1           0       -0.983658   -0.793762    1.560594
     14          1           0        0.057622   -1.219505   -1.276509
     15          1           0        1.457132   -1.147181    1.408525
     16          1           0        1.988662   -1.854519   -0.115442
     17          1           0        3.308179    0.477527    0.199324
     18          1           0        1.571868    2.302111   -0.660335
 ---------------------------------------------------------------------
                    Distance matrix (angstroms):
                    1          2          3          4          5
     1  O    0.000000
     2  C    1.217783   0.000000
     3  C    2.484039   1.537438   0.000000
     4  C    3.584967   2.420636   1.541857   0.000000
     5  C    3.567627   2.398638   2.404448   1.538933   0.000000
     6  C    4.584099   3.561579   3.804581   2.698185   1.548910
     7  C    4.248810   3.535623   4.346486   3.685767   2.392186
     8  C    3.038063   2.523712   3.676725   3.511429   2.356916
     9  N    2.313553   1.375361   2.319689   2.350109   1.475665
    10  H    2.727231   2.168001   1.092305   2.234362   3.370590
    11  H    2.971699   2.164990   1.098445   2.197267   2.862934
    12  H    4.540138   3.382887   2.219542   1.092836   2.205404
    13  H    3.871855   2.849211   2.175166   1.096897   2.167659
    14  H    4.107136   2.973401   2.853295   2.174592   1.099209
    15  H    4.967248   3.976601   4.056522   2.798034   2.213610
    16  H    5.523176   4.460593   4.563289   3.351563   2.196160
    17  H    5.130300   4.539300   5.413126   4.713495   3.439112
    18  H    2.949728   2.876428   4.277134   4.403642   3.365748
                    6          7          8          9         10
     6  C    0.000000
     7  C    1.521281   0.000000
     8  C    2.354366   1.337578   0.000000
     9  N    2.379744   2.257422   1.403054   0.000000
    10  H    4.636773   5.159557   4.464599   3.208005   0.000000
    11  H    4.394507   4.965988   4.261090   2.862940   1.765195
    12  H    3.253658   4.473370   4.450604   3.295512   2.786443
    13  H    2.793781   3.754655   3.720392   2.816293   2.460624
    14  H    2.178106   2.979838   2.948450   2.099267   3.913907
    15  H    1.101306   2.174986   3.024333   3.029771   4.689455
    16  H    1.094784   2.199751   3.184461   3.237027   5.456903
    17  H    2.308175   1.082351   2.151293   3.298207   6.189335
    18  H    3.417485   2.198119   1.081950   2.145114   4.961301
                   11         12         13         14         15
    11  H    0.000000
    12  H    2.473104   0.000000
    13  H    3.074906   1.774389   0.000000
    14  H    2.895433   2.426034   3.051995   0.000000
    15  H    4.811720   3.322166   2.470928   3.028740   0.000000
    16  H    4.980635   3.610376   3.573371   2.340990   1.762193
    17  H    6.046601   5.465368   4.678578   3.952736   2.743760
    18  H    4.823212   5.387931   4.587774   3.882576   4.023800
                   16         17         18
    16  H    0.000000
    17  H    2.697896   0.000000
    18  H    4.212861   2.661371   0.000000
 Stoichiometry    C7H9NO
 Framework group  C1[X(C7H9NO)]
 Deg. of freedom    48
 Full point group                 C1      NOp   1
 RotChk:  IX=0 Diff= 2.02D-02
 Largest Abelian subgroup         C1      NOp   1
 Largest concise Abelian subgroup C1      NOp   1
                         Standard orientation:                         
 ---------------------------------------------------------------------
 Center     Atomic      Atomic             Coordinates (Angstroms)
 Number     Number       Type             X           Y           Z
 ---------------------------------------------------------------------
      1          8           0       -1.982296   -1.561552   -0.188820
      2          6           0       -1.335753   -0.549794    0.014460
      3          6           0       -1.821901    0.908757    0.016838
      4          6           0       -0.540234    1.719808   -0.260376
      5          6           0        0.546370    0.877586    0.431194
      6          6           0        1.975646    0.750874   -0.152104
      7          6           0        2.189250   -0.755267   -0.166545
      8          6           0        1.040381   -1.398383    0.069292
      9          7           0        0.002377   -0.490162    0.326666
     10          1           0       -2.617220    1.036831   -0.720858
     11          1           0       -2.246111    1.148634    1.001260
     12          1           0       -0.580647    2.746286    0.112450
     13          1           0       -0.346018    1.753563   -1.339414
     14          1           0        0.606819    1.145470    1.495545
     15          1           0        2.048985    1.170508   -1.167685
     16          1           0        2.703509    1.288409    0.464192
     17          1           0        3.132922   -1.230646   -0.401029
     18          1           0        0.816942   -2.456990    0.062882
 ---------------------------------------------------------------------
 Rotational constants (GHZ):           2.8836515           1.7021791           1.1334456
 Leave Link  202 at Tue Apr  9 11:54:39 2024, MaxMem=  7516192768 cpu:               0.1 elap:               0.0
 (Enter /public3/home/scg9909/software-scg9909/g16/l301.exe)
 Standard basis: 6-31G(d) (6D, 7F)
 Ernie: Thresh=  0.10000D-02 Tol=  0.10000D-05 Strict=F.
 There are   153 symmetry adapted cartesian basis functions of A   symmetry.
 There are   153 symmetry adapted basis functions of A   symmetry.
   153 basis functions,   288 primitive gaussians,   153 cartesian basis functions
    33 alpha electrons       33 beta electrons
       nuclear repulsion energy       448.3854977120 Hartrees.
 IExCor=  402 DFT=T Ex+Corr=B3LYP ExCW=0 ScaHFX=  0.200000
 ScaDFX=  0.800000  0.720000  1.000000  0.810000 ScalE2=  1.000000  1.000000
 IRadAn=      5 IRanWt=     -1 IRanGd=            0 ICorTp=0 IEmpDi=141
 NAtoms=   18 NActive=   18 NUniq=   18 SFac= 1.00D+00 NAtFMM=   60 NAOKFM=F Big=F
 Integral buffers will be    131072 words long.
 Raffenetti 2 integral format.
 Two-electron integral symmetry is turned on.
 R6Disp:  Grimme-D3(BJ) Dispersion energy=       -0.0312007967 Hartrees.
 Nuclear repulsion after empirical dispersion term =      448.3542969154 Hartrees.
 Leave Link  301 at Tue Apr  9 11:54:39 2024, MaxMem=  7516192768 cpu:               0.5 elap:               0.0
 (Enter /public3/home/scg9909/software-scg9909/g16/l302.exe)
 NPDir=0 NMtPBC=     1 NCelOv=     1 NCel=       1 NClECP=     1 NCelD=      1
         NCelK=      1 NCelE2=     1 NClLst=     1 CellRange=     0.0.
 One-electron integrals computed using PRISM.
 One-electron integral symmetry used in STVInt
 NBasis=   153 RedAO= T EigKep=  1.81D-03  NBF=   153
 NBsUse=   153 1.00D-06 EigRej= -1.00D+00 NBFU=   153
 Precomputing XC quadrature grid using
 IXCGrd= 4 IRadAn=           5 IRanWt=          -1 IRanGd=           0 AccXCQ= 0.00D+00.
 Generated NRdTot=       0 NPtTot=           0 NUsed=           0 NTot=          32
 NSgBfM=   153   153   153   153   153 MxSgAt=    18 MxSgA2=    18.
 Leave Link  302 at Tue Apr  9 11:54:39 2024, MaxMem=  7516192768 cpu:               2.6 elap:               0.1
 (Enter /public3/home/scg9909/software-scg9909/g16/l303.exe)
 DipDrv:  MaxL=1.
 Leave Link  303 at Tue Apr  9 11:54:39 2024, MaxMem=  7516192768 cpu:               0.3 elap:               0.0
 (Enter /public3/home/scg9909/software-scg9909/g16/l401.exe)
 Initial guess from the checkpoint file:  "/public3/home/scg9909/tmp/Gau-65552.chk"
 B after Tr=    -0.000000    0.000000    0.000000
         Rot=    0.999991   -0.000154   -0.001086   -0.004125 Ang=  -0.49 deg.
 Guess basis will be translated and rotated to current coordinates.
 JPrj=2 DoOrth=T DoCkMO=T.
 Generating alternative initial guess.
 ExpMin= 1.61D-01 ExpMax= 5.48D+03 ExpMxC= 8.25D+02 IAcc=3 IRadAn=         5 AccDes= 0.00D+00
 Harris functional with IExCor=  402 and IRadAn=       5 diagonalized for initial guess.
 HarFok:  IExCor=  402 AccDes= 0.00D+00 IRadAn=         5 IDoV= 1 UseB2=F ITyADJ=14
 ICtDFT=  3500011 ScaDFX=  1.000000  1.000000  1.000000  1.000000
 FoFCou: FMM=F IPFlag=           0 FMFlag=      100000 FMFlg1=           0
         NFxFlg=           0 DoJE=T BraDBF=F KetDBF=T FulRan=T
         wScrn=  0.000000 ICntrl=       500 IOpCl=  0 I1Cent=   200000004 NGrid=           0
         NMat0=    1 NMatS0=      1 NMatT0=    0 NMatD0=    1 NMtDS0=    0 NMtDT0=    0
 Petite list used in FoFCou.
 Harris En= -402.167496176400    
 Leave Link  401 at Tue Apr  9 11:54:39 2024, MaxMem=  7516192768 cpu:              10.0 elap:               0.4
 (Enter /public3/home/scg9909/software-scg9909/g16/l502.exe)
 Integral symmetry usage will be decided dynamically.
 Closed shell SCF:
 Using DIIS extrapolation, IDIIS=  1040.
 NGot=  7516192768 LenX=  7516139403 LenY=  7516115553
 Requested convergence on RMS density matrix=1.00D-08 within 128 cycles.
 Requested convergence on MAX density matrix=1.00D-06.
 Requested convergence on             energy=1.00D-06.
 No special actions if energy rises.
 Fock matrices will be formed incrementally for  20 cycles.
 Integral accuracy reduced to 1.0D-05 until final iterations.

 Cycle   1  Pass 0  IDiag  1:
 FoFJK:  IHMeth= 1 ICntrl=       0 DoSepK=F KAlg= 0 I1Cent=           0 FoldK=F
 IRaf= 970000000 NMat=       1 IRICut=       1 DoRegI=T DoRafI=F ISym2E= 0 IDoP0=0 IntGTp=1.
 FoFCou: FMM=F IPFlag=           0 FMFlag=      100000 FMFlg1=           0
         NFxFlg=           0 DoJE=F BraDBF=F KetDBF=F FulRan=T
         wScrn=  0.000000 ICntrl=         0 IOpCl=  0 I1Cent=           0 NGrid=           0
         NMat0=    1 NMatS0=      1 NMatT0=    0 NMatD0=    1 NMtDS0=    0 NMtDT0=    0
 Symmetry not used in FoFCou.
 E= -402.159105246231    
 DIIS: error= 1.43D-03 at cycle   1 NSaved=   1.
 NSaved= 1 IEnMin= 1 EnMin= -402.159105246231     IErMin= 1 ErrMin= 1.43D-03
 ErrMax= 1.43D-03  0.00D+00 EMaxC= 1.00D-01 BMatC= 1.04D-03 BMatP= 1.04D-03
 IDIUse=3 WtCom= 9.86D-01 WtEn= 1.43D-02
 Coeff-Com:  0.100D+01
 Coeff-En:   0.100D+01
 Coeff:      0.100D+01
 Gap=     1.664 Goal=   None    Shift=    0.000
 GapD=    1.664 DampG=2.000 DampE=1.000 DampFc=2.0000 IDamp=-1.
 RMSDP=4.23D-04 MaxDP=7.09D-03              OVMax= 1.31D-02

 Cycle   2  Pass 0  IDiag  1:
 RMSU=  4.23D-04    CP:  1.00D+00
 E= -402.161284387489     Delta-E=       -0.002179141258 Rises=F Damp=F
 DIIS: error= 1.83D-04 at cycle   2 NSaved=   2.
 NSaved= 2 IEnMin= 2 EnMin= -402.161284387489     IErMin= 2 ErrMin= 1.83D-04
 ErrMax= 1.83D-04  0.00D+00 EMaxC= 1.00D-01 BMatC= 1.48D-05 BMatP= 1.04D-03
 IDIUse=3 WtCom= 9.98D-01 WtEn= 1.83D-03
 Coeff-Com: -0.735D-01 0.107D+01
 Coeff-En:   0.000D+00 0.100D+01
 Coeff:     -0.734D-01 0.107D+01
 Gap=     0.210 Goal=   None    Shift=    0.000
 RMSDP=6.08D-05 MaxDP=7.99D-04 DE=-2.18D-03 OVMax= 2.57D-03

 Cycle   3  Pass 0  IDiag  1:
 RMSU=  4.67D-05    CP:  1.00D+00  1.09D+00
 E= -402.161307285877     Delta-E=       -0.000022898388 Rises=F Damp=F
 DIIS: error= 1.15D-04 at cycle   3 NSaved=   3.
 NSaved= 3 IEnMin= 3 EnMin= -402.161307285877     IErMin= 3 ErrMin= 1.15D-04
 ErrMax= 1.15D-04  0.00D+00 EMaxC= 1.00D-01 BMatC= 6.69D-06 BMatP= 1.48D-05
 IDIUse=3 WtCom= 9.99D-01 WtEn= 1.15D-03
 Coeff-Com: -0.397D-01 0.478D+00 0.562D+00
 Coeff-En:   0.000D+00 0.000D+00 0.100D+01
 Coeff:     -0.396D-01 0.477D+00 0.562D+00
 Gap=     0.210 Goal=   None    Shift=    0.000
 RMSDP=2.27D-05 MaxDP=6.65D-04 DE=-2.29D-05 OVMax= 1.34D-03

 Cycle   4  Pass 0  IDiag  1:
 RMSU=  1.91D-05    CP:  1.00D+00  1.10D+00  7.50D-01
 E= -402.161311543493     Delta-E=       -0.000004257616 Rises=F Damp=F
 DIIS: error= 8.77D-05 at cycle   4 NSaved=   4.
 NSaved= 4 IEnMin= 4 EnMin= -402.161311543493     IErMin= 4 ErrMin= 8.77D-05
 ErrMax= 8.77D-05  0.00D+00 EMaxC= 1.00D-01 BMatC= 1.89D-06 BMatP= 6.69D-06
 IDIUse=1 WtCom= 1.00D+00 WtEn= 0.00D+00
 Coeff-Com: -0.146D-01 0.162D+00 0.356D+00 0.496D+00
 Coeff:     -0.146D-01 0.162D+00 0.356D+00 0.496D+00
 Gap=     0.210 Goal=   None    Shift=    0.000
 RMSDP=1.08D-05 MaxDP=3.49D-04 DE=-4.26D-06 OVMax= 7.87D-04

 Cycle   5  Pass 0  IDiag  1:
 RMSU=  7.34D-06    CP:  1.00D+00  1.10D+00  7.83D-01  5.97D-01
 E= -402.161313331053     Delta-E=       -0.000001787560 Rises=F Damp=F
 DIIS: error= 1.86D-05 at cycle   5 NSaved=   5.
 NSaved= 5 IEnMin= 5 EnMin= -402.161313331053     IErMin= 5 ErrMin= 1.86D-05
 ErrMax= 1.86D-05  0.00D+00 EMaxC= 1.00D-01 BMatC= 1.07D-07 BMatP= 1.89D-06
 IDIUse=1 WtCom= 1.00D+00 WtEn= 0.00D+00
 Coeff-Com: -0.307D-02 0.286D-01 0.111D+00 0.253D+00 0.611D+00
 Coeff:     -0.307D-02 0.286D-01 0.111D+00 0.253D+00 0.611D+00
 Gap=     0.210 Goal=   None    Shift=    0.000
 RMSDP=2.99D-06 MaxDP=7.07D-05 DE=-1.79D-06 OVMax= 1.36D-04

 Initial convergence to 1.0D-05 achieved.  Increase integral accuracy.
 Cycle   6  Pass 1  IDiag  1:
 E= -402.161323959964     Delta-E=       -0.000010628911 Rises=F Damp=F
 DIIS: error= 1.12D-05 at cycle   1 NSaved=   1.
 NSaved= 1 IEnMin= 1 EnMin= -402.161323959964     IErMin= 1 ErrMin= 1.12D-05
 ErrMax= 1.12D-05  0.00D+00 EMaxC= 1.00D-01 BMatC= 3.78D-08 BMatP= 3.78D-08
 IDIUse=1 WtCom= 1.00D+00 WtEn= 0.00D+00
 Coeff-Com:  0.100D+01
 Coeff:      0.100D+01
 Gap=     0.210 Goal=   None    Shift=    0.000
 RMSDP=2.99D-06 MaxDP=7.07D-05 DE=-1.06D-05 OVMax= 1.26D-04

 Cycle   7  Pass 1  IDiag  1:
 RMSU=  3.85D-06    CP:  1.00D+00
 E= -402.161323908764     Delta-E=        0.000000051200 Rises=F Damp=F
 DIIS: error= 2.88D-05 at cycle   2 NSaved=   2.
 NSaved= 2 IEnMin= 1 EnMin= -402.161323959964     IErMin= 1 ErrMin= 1.12D-05
 ErrMax= 2.88D-05  0.00D+00 EMaxC= 1.00D-01 BMatC= 1.10D-07 BMatP= 3.78D-08
 IDIUse=1 WtCom= 1.00D+00 WtEn= 0.00D+00
 Coeff-Com:  0.644D+00 0.356D+00
 Coeff:      0.644D+00 0.356D+00
 Gap=     0.210 Goal=   None    Shift=    0.000
 RMSDP=2.15D-06 MaxDP=7.97D-05 DE= 5.12D-08 OVMax= 9.52D-05

 Cycle   8  Pass 1  IDiag  1:
 RMSU=  1.59D-06    CP:  1.00D+00  6.29D-01
 E= -402.161323991067     Delta-E=       -0.000000082303 Rises=F Damp=F
 DIIS: error= 5.36D-06 at cycle   3 NSaved=   3.
 NSaved= 3 IEnMin= 3 EnMin= -402.161323991067     IErMin= 3 ErrMin= 5.36D-06
 ErrMax= 5.36D-06  0.00D+00 EMaxC= 1.00D-01 BMatC= 3.29D-09 BMatP= 3.78D-08
 IDIUse=1 WtCom= 1.00D+00 WtEn= 0.00D+00
 Coeff-Com:  0.121D+00 0.160D+00 0.720D+00
 Coeff:      0.121D+00 0.160D+00 0.720D+00
 Gap=     0.210 Goal=   None    Shift=    0.000
 RMSDP=5.48D-07 MaxDP=1.70D-05 DE=-8.23D-08 OVMax= 3.06D-05

 Cycle   9  Pass 1  IDiag  1:
 RMSU=  4.27D-07    CP:  1.00D+00  6.90D-01  8.45D-01
 E= -402.161323992601     Delta-E=       -0.000000001534 Rises=F Damp=F
 DIIS: error= 1.80D-06 at cycle   4 NSaved=   4.
 NSaved= 4 IEnMin= 4 EnMin= -402.161323992601     IErMin= 4 ErrMin= 1.80D-06
 ErrMax= 1.80D-06  0.00D+00 EMaxC= 1.00D-01 BMatC= 1.26D-09 BMatP= 3.29D-09
 IDIUse=1 WtCom= 1.00D+00 WtEn= 0.00D+00
 Coeff-Com: -0.798D-02 0.559D-01 0.469D+00 0.483D+00
 Coeff:     -0.798D-02 0.559D-01 0.469D+00 0.483D+00
 Gap=     0.210 Goal=   None    Shift=    0.000
 RMSDP=2.34D-07 MaxDP=8.49D-06 DE=-1.53D-09 OVMax= 1.29D-05

 Cycle  10  Pass 1  IDiag  1:
 RMSU=  7.51D-08    CP:  1.00D+00  6.84D-01  8.90D-01  5.13D-01
 E= -402.161323993707     Delta-E=       -0.000000001107 Rises=F Damp=F
 DIIS: error= 2.02D-07 at cycle   5 NSaved=   5.
 NSaved= 5 IEnMin= 5 EnMin= -402.161323993707     IErMin= 5 ErrMin= 2.02D-07
 ErrMax= 2.02D-07  0.00D+00 EMaxC= 1.00D-01 BMatC= 1.77D-11 BMatP= 1.26D-09
 IDIUse=1 WtCom= 1.00D+00 WtEn= 0.00D+00
 Coeff-Com: -0.676D-02 0.226D-01 0.201D+00 0.231D+00 0.552D+00
 Coeff:     -0.676D-02 0.226D-01 0.201D+00 0.231D+00 0.552D+00
 Gap=     0.210 Goal=   None    Shift=    0.000
 RMSDP=3.52D-08 MaxDP=9.75D-07 DE=-1.11D-09 OVMax= 1.64D-06

 Cycle  11  Pass 1  IDiag  1:
 RMSU=  2.66D-08    CP:  1.00D+00  6.87D-01  8.91D-01  5.21D-01  7.21D-01
 E= -402.161323993720     Delta-E=       -0.000000000012 Rises=F Damp=F
 DIIS: error= 7.23D-08 at cycle   6 NSaved=   6.
 NSaved= 6 IEnMin= 6 EnMin= -402.161323993720     IErMin= 6 ErrMin= 7.23D-08
 ErrMax= 7.23D-08  0.00D+00 EMaxC= 1.00D-01 BMatC= 1.92D-12 BMatP= 1.77D-11
 IDIUse=1 WtCom= 1.00D+00 WtEn= 0.00D+00
 Coeff-Com: -0.256D-02 0.577D-02 0.534D-01 0.676D-01 0.289D+00 0.587D+00
 Coeff:     -0.256D-02 0.577D-02 0.534D-01 0.676D-01 0.289D+00 0.587D+00
 Gap=     0.210 Goal=   None    Shift=    0.000
 RMSDP=1.28D-08 MaxDP=3.98D-07 DE=-1.23D-11 OVMax= 8.38D-07

 Cycle  12  Pass 1  IDiag  1:
 RMSU=  9.36D-09    CP:  1.00D+00  6.87D-01  8.92D-01  5.24D-01  7.40D-01
                    CP:  6.97D-01
 E= -402.161323993723     Delta-E=       -0.000000000003 Rises=F Damp=F
 DIIS: error= 2.74D-08 at cycle   7 NSaved=   7.
 NSaved= 7 IEnMin= 7 EnMin= -402.161323993723     IErMin= 7 ErrMin= 2.74D-08
 ErrMax= 2.74D-08  0.00D+00 EMaxC= 1.00D-01 BMatC= 2.26D-13 BMatP= 1.92D-12
 IDIUse=1 WtCom= 1.00D+00 WtEn= 0.00D+00
 Coeff-Com: -0.814D-03 0.129D-02 0.126D-01 0.176D-01 0.105D+00 0.311D+00
 Coeff-Com:  0.553D+00
 Coeff:     -0.814D-03 0.129D-02 0.126D-01 0.176D-01 0.105D+00 0.311D+00
 Coeff:      0.553D+00
 Gap=     0.210 Goal=   None    Shift=    0.000
 RMSDP=4.44D-09 MaxDP=1.79D-07 DE=-2.84D-12 OVMax= 3.40D-07

 SCF Done:  E(RB3LYP) =  -402.161323994     A.U. after   12 cycles
            NFock= 12  Conv=0.44D-08     -V/T= 2.0095
 KE= 3.983868753913D+02 PE=-1.831483439774D+03 EE= 5.825809434739D+02
 Leave Link  502 at Tue Apr  9 11:54:43 2024, MaxMem=  7516192768 cpu:             107.1 elap:               3.8
 (Enter /public3/home/scg9909/software-scg9909/g16/l701.exe)
 ... and contract with generalized density number  0.
 Compute integral first derivatives.
 R6Disp: Adding Grimme-D3(BJ) dispersion energy 1st derivatives to the gradient.
 Leave Link  701 at Tue Apr  9 11:54:43 2024, MaxMem=  7516192768 cpu:               2.0 elap:               0.1
 (Enter /public3/home/scg9909/software-scg9909/g16/l702.exe)
 L702 exits ... SP integral derivatives will be done elsewhere.
 Leave Link  702 at Tue Apr  9 11:54:43 2024, MaxMem=  7516192768 cpu:               0.2 elap:               0.0
 (Enter /public3/home/scg9909/software-scg9909/g16/l703.exe)
 Integral derivatives from FoFJK, PRISM(SPDF).
 Compute integral first derivatives, UseDBF=F ICtDFT=           0.
 Calling FoFJK, ICntrl=      2127 FMM=F ISym2X=0 I1Cent= 0 IOpClX= 0 NMat=1 NMatS=1 NMatT=0.
 FoFJK:  IHMeth= 1 ICntrl=    2127 DoSepK=F KAlg= 0 I1Cent=           0 FoldK=F
 IRaf=         0 NMat=       1 IRICut=       1 DoRegI=T DoRafI=F ISym2E= 0 IDoP0=0 IntGTp=1.
 FoFCou: FMM=F IPFlag=           0 FMFlag=      100000 FMFlg1=         800
         NFxFlg=           0 DoJE=F BraDBF=F KetDBF=F FulRan=T
         wScrn=  0.000000 ICntrl=      2127 IOpCl=  0 I1Cent=           0 NGrid=           0
         NMat0=    1 NMatS0=      1 NMatT0=    0 NMatD0=    1 NMtDS0=    0 NMtDT0=    0
 Symmetry not used in FoFCou.
 Leave Link  703 at Tue Apr  9 11:54:44 2024, MaxMem=  7516192768 cpu:              20.2 elap:               0.7
 (Enter /public3/home/scg9909/software-scg9909/g16/l716.exe)
 Dipole        = 9.73410896D-01 1.17455064D+00 1.07486761D-01
 ***** Axes restored to original set *****
 -------------------------------------------------------------------
 Center     Atomic                   Forces (Hartrees/Bohr)
 Number     Number              X              Y              Z
 -------------------------------------------------------------------
      1        8           0.000136823    0.000437908    0.001693941
      2        6          -0.001579060   -0.000545082   -0.004427139
      3        6          -0.000846717    0.001570519    0.001543121
      4        6           0.000833601   -0.000367345   -0.000159534
      5        6          -0.000805438    0.001228385    0.000573901
      6        6          -0.000802192   -0.000925822    0.000088231
      7        6           0.001845890   -0.000779771    0.000692601
      8        6          -0.002597155    0.001143687   -0.000220963
      9        7           0.002004594   -0.001544264    0.000071859
     10        1           0.000232936   -0.000553611    0.000516060
     11        1           0.000710846    0.000265678   -0.000134141
     12        1          -0.000180891   -0.000403428    0.000154396
     13        1          -0.000050597   -0.000147367   -0.000212847
     14        1           0.000117433    0.000036644   -0.000125723
     15        1          -0.000048865    0.000487034   -0.000080824
     16        1           0.000364367    0.000268225   -0.000088924
     17        1           0.000249375   -0.000005384   -0.000006233
     18        1           0.000415051   -0.000166006    0.000122219
 -------------------------------------------------------------------
 Cartesian Forces:  Max     0.004427139 RMS     0.001028910
 Leave Link  716 at Tue Apr  9 11:54:44 2024, MaxMem=  7516192768 cpu:               0.2 elap:               0.0
 (Enter /public3/home/scg9909/software-scg9909/g16/l103.exe)

 GradGradGradGradGradGradGradGradGradGradGradGradGradGradGradGradGradGrad
 Berny optimization.
 Using GEDIIS/GDIIS optimizer.
 FormGI is forming the generalized inverse of G from B-inverse, IUseBI=4.
 Internal  Forces:  Max     0.001654367 RMS     0.000376721
 Search for a local minimum.
 Step number   4 out of a maximum of  108
 All quantities printed in internal units (Hartrees-Bohrs-Radians)
 RMS Force = .37672D-03 SwitMx=.10000D-02 MixMth= 2
 Mixed Optimization -- En-DIIS/RFO-DIIS
 Swapping is turned off.
 Update second derivatives using D2CorX and points    2    3    4
 DE= -1.13D-04 DEPred=-2.19D-04 R= 5.14D-01
 TightC=F SS=  1.41D+00  RLast= 2.59D-01 DXNew= 1.0373D+00 7.7561D-01
 Trust test= 5.14D-01 RLast= 2.59D-01 DXMaxT set to 7.76D-01
 ITU=  1  1  1  0
     Eigenvalues ---    0.00337   0.00657   0.01035   0.01411   0.01929
     Eigenvalues ---    0.02109   0.02517   0.03241   0.04011   0.04163
     Eigenvalues ---    0.04447   0.04935   0.05507   0.05942   0.06180
     Eigenvalues ---    0.06750   0.07314   0.07452   0.08036   0.08516
     Eigenvalues ---    0.08819   0.10388   0.12467   0.15930   0.15958
     Eigenvalues ---    0.19492   0.22091   0.22303   0.25267   0.26804
     Eigenvalues ---    0.28196   0.28869   0.29608   0.30212   0.33875
     Eigenvalues ---    0.34047   0.34293   0.34341   0.34344   0.34515
     Eigenvalues ---    0.34570   0.35783   0.35980   0.36472   0.46393
     Eigenvalues ---    0.47677   0.56805   0.96260
 En-DIIS/RFO-DIIS/Sim-DIIS IScMMF=       -3 using points:     4    3    2
 RFO step:  Lambda=-2.49236844D-04.
 NNeg= 0 NGDIIS= 3 SimSw=  2.50D-01 Rises=F DC= -1.13D-04 SmlDif=  1.00D-05
 NRisDI= 0 DoIntr=F SqrtH=F CThrHd= 10.0 CDAdj=  3.0
 RMS Error=  0.1281594702D-01 NUsed= 3 OKEnD=T EnDIS=F
 InvSVX:  RCond= 1.76D-03 Info=           0 Equed=N FErr=  2.76D-14 BErr=  6.47D-17
 DidBck=T Rises=F RFO-DIIS coefs:    0.57884    0.94100   -0.51984
 Iteration  1 RMS(Cart)=  0.00593098 RMS(Int)=  0.00008966
 Iteration  2 RMS(Cart)=  0.00005345 RMS(Int)=  0.00008091
 Iteration  3 RMS(Cart)=  0.00000000 RMS(Int)=  0.00008091
 ITry= 1 IFail=0 DXMaxC= 2.77D-02 DCOld= 1.00D+10 DXMaxT= 7.76D-01 DXLimC= 3.00D+00 Rises=F
 Variable       Old X    -DE/DX   Delta X   Delta X   Delta X     New X
                                 (Linear)    (Quad)   (Total)
    R1        2.30128   0.00031  -0.00046   0.00067   0.00021   2.30148
    R2        2.90534  -0.00034   0.00099  -0.00134  -0.00030   2.90504
    R3        2.59906   0.00112  -0.00067   0.00176   0.00108   2.60014
    R4        2.91369   0.00051  -0.00087   0.00195   0.00113   2.91481
    R5        2.06416  -0.00000   0.00014  -0.00017  -0.00003   2.06412
    R6        2.07576  -0.00028  -0.00004  -0.00031  -0.00035   2.07541
    R7        2.90816  -0.00034   0.00152  -0.00254  -0.00104   2.90712
    R8        2.06516   0.00042  -0.00108   0.00174   0.00066   2.06582
    R9        2.07283  -0.00024   0.00076  -0.00116  -0.00040   2.07244
   R10        2.92702   0.00015  -0.00065   0.00099   0.00028   2.92730
   R11        2.78860  -0.00067   0.00252  -0.00381  -0.00140   2.78720
   R12        2.07720   0.00009  -0.00002   0.00014   0.00012   2.07732
   R13        2.87480   0.00021   0.00032  -0.00024   0.00008   2.87488
   R14        2.08117  -0.00016   0.00067  -0.00100  -0.00033   2.08084
   R15        2.06884  -0.00002   0.00005  -0.00009  -0.00003   2.06881
   R16        2.52766   0.00165  -0.00271   0.00421   0.00158   2.52924
   R17        2.04535   0.00024  -0.00094   0.00135   0.00040   2.04575
   R18        2.65139  -0.00049   0.00147  -0.00238  -0.00086   2.65053
   R19        2.04459  -0.00012   0.00051  -0.00073  -0.00022   2.04437
    A1        2.24026  -0.00012   0.00078  -0.00236  -0.00131   2.23896
    A2        2.20242   0.00022  -0.00141   0.00077  -0.00037   2.20205
    A3        1.84021  -0.00007   0.00038   0.00158   0.00193   1.84214
    A4        1.80895   0.00010   0.00283  -0.00020   0.00251   1.81146
    A5        1.91816   0.00057  -0.00043   0.00260   0.00219   1.92036
    A6        1.90781  -0.00058  -0.00172  -0.00131  -0.00304   1.90478
    A7        2.00660  -0.00052   0.00194  -0.00483  -0.00288   2.00372
    A8        1.94688   0.00003   0.00105  -0.00209  -0.00100   1.94588
    A9        1.87387   0.00037  -0.00354   0.00567   0.00210   1.87597
   A10        1.79082   0.00012   0.00051   0.00223   0.00257   1.79339
   A11        1.98450   0.00009   0.00003   0.00047   0.00055   1.98506
   A12        1.91796  -0.00013  -0.00064  -0.00078  -0.00139   1.91657
   A13        1.96801   0.00012  -0.00099   0.00203   0.00112   1.96913
   A14        1.91122  -0.00015   0.00036  -0.00197  -0.00162   1.90961
   A15        1.88940  -0.00006   0.00073  -0.00194  -0.00123   1.88817
   A16        2.12596  -0.00054  -0.00042  -0.00218  -0.00254   2.12342
   A17        1.78762   0.00028  -0.00032   0.00196   0.00157   1.78919
   A18        1.91834   0.00026   0.00104  -0.00003   0.00102   1.91935
   A19        1.81076   0.00012   0.00140  -0.00104   0.00032   1.81109
   A20        1.91117   0.00011  -0.00129   0.00173   0.00045   1.91162
   A21        1.89098  -0.00022  -0.00031  -0.00043  -0.00072   1.89027
   A22        1.78660   0.00024  -0.00137   0.00245   0.00090   1.78750
   A23        1.95795  -0.00016   0.00051  -0.00140  -0.00080   1.95715
   A24        1.94049   0.00025  -0.00336   0.00546   0.00211   1.94260
   A25        1.93814  -0.00019   0.00258  -0.00480  -0.00220   1.93594
   A26        1.98024  -0.00034   0.00380  -0.00544  -0.00156   1.97869
   A27        1.86268   0.00020  -0.00197   0.00345   0.00142   1.86411
   A28        1.93237  -0.00070   0.00263  -0.00397  -0.00138   1.93099
   A29        2.16436   0.00033  -0.00102   0.00161   0.00060   2.16496
   A30        2.18449   0.00037  -0.00135   0.00213   0.00078   2.18527
   A31        1.93537   0.00003  -0.00042   0.00130   0.00078   1.93615
   A32        2.27413  -0.00047   0.00245  -0.00433  -0.00198   2.27215
   A33        2.07334   0.00044  -0.00153   0.00287   0.00122   2.07456
   A34        1.99866  -0.00006   0.00075  -0.00013   0.00027   1.99893
   A35        2.27849  -0.00041   0.00162  -0.00350  -0.00174   2.27675
   A36        1.91797   0.00035  -0.00104   0.00171   0.00060   1.91857
    D1       -2.74186   0.00060   0.02415  -0.00704   0.01708  -2.72478
    D2       -0.58884   0.00035   0.02787  -0.01151   0.01631  -0.57253
    D3        1.46356   0.00079   0.02222  -0.00389   0.01833   1.48189
    D4        0.42463  -0.00076  -0.00985  -0.00694  -0.01675   0.40788
    D5        2.57766  -0.00102  -0.00613  -0.01142  -0.01752   2.56013
    D6       -1.65314  -0.00057  -0.01178  -0.00379  -0.01550  -1.66864
    D7        3.07337  -0.00079  -0.02239   0.00259  -0.01990   3.05348
    D8        0.42187  -0.00061  -0.02490   0.00700  -0.01788   0.40399
    D9       -0.09241   0.00053   0.01059   0.00244   0.01298  -0.07943
   D10       -2.74391   0.00071   0.00808   0.00685   0.01500  -2.72892
   D11       -0.58001   0.00058   0.00607   0.00810   0.01426  -0.56575
   D12       -2.71072   0.00030   0.00693   0.00390   0.01090  -2.69983
   D13        1.45170   0.00041   0.00643   0.00666   0.01313   1.46483
   D14       -2.67380   0.00009   0.00373   0.00768   0.01145  -2.66235
   D15        1.47867  -0.00019   0.00459   0.00348   0.00809   1.48676
   D16       -0.64209  -0.00008   0.00409   0.00624   0.01032  -0.63177
   D17        1.47071  -0.00003   0.00616   0.00545   0.01164   1.48234
   D18       -0.66001  -0.00030   0.00702   0.00125   0.00827  -0.65173
   D19       -2.78077  -0.00019   0.00652   0.00401   0.01051  -2.77027
   D20        2.52515  -0.00016   0.00037  -0.00685  -0.00654   2.51862
   D21        0.51760  -0.00026  -0.00096  -0.00589  -0.00684   0.51076
   D22       -1.48949  -0.00025  -0.00085  -0.00637  -0.00723  -1.49672
   D23       -1.61616   0.00009   0.00021  -0.00376  -0.00361  -1.61977
   D24        2.65947  -0.00000  -0.00113  -0.00280  -0.00390   2.65556
   D25        0.65237   0.00000  -0.00102  -0.00328  -0.00430   0.64808
   D26        0.48862  -0.00001   0.00072  -0.00625  -0.00556   0.48306
   D27       -1.51894  -0.00011  -0.00061  -0.00529  -0.00586  -1.52479
   D28        2.75716  -0.00010  -0.00050  -0.00577  -0.00625   2.75091
   D29       -2.25371  -0.00008   0.00168   0.00085   0.00262  -2.25109
   D30       -0.17491  -0.00025   0.00416  -0.00405   0.00017  -0.17474
   D31        1.90944   0.00007  -0.00035   0.00314   0.00289   1.91233
   D32       -0.25785   0.00009   0.00215   0.00138   0.00352  -0.25433
   D33        1.82095  -0.00008   0.00463  -0.00352   0.00107   1.82202
   D34       -2.37788   0.00023   0.00012   0.00367   0.00379  -2.37410
   D35        1.75789  -0.00005   0.00193   0.00111   0.00306   1.76095
   D36       -2.44650  -0.00022   0.00441  -0.00378   0.00061  -2.44589
   D37       -0.36215   0.00009  -0.00010   0.00340   0.00333  -0.35882
   D38       -0.27770  -0.00021  -0.00620   0.00219  -0.00398  -0.28168
   D39        2.47370  -0.00054  -0.00358  -0.00270  -0.00624   2.46746
   D40       -2.50398   0.00021  -0.00623   0.00420  -0.00201  -2.50599
   D41        0.24742  -0.00012  -0.00361  -0.00069  -0.00427   0.24315
   D42        1.74922   0.00012  -0.00530   0.00292  -0.00237   1.74685
   D43       -1.78256  -0.00021  -0.00268  -0.00197  -0.00463  -1.78720
   D44        0.20024  -0.00013   0.00021  -0.00233  -0.00206   0.19818
   D45       -3.00584  -0.00012   0.00379  -0.00598  -0.00211  -3.00795
   D46       -1.89243   0.00001  -0.00083   0.00020  -0.00059  -1.89302
   D47        1.18467   0.00003   0.00275  -0.00346  -0.00064   1.18403
   D48        2.29277   0.00014  -0.00276   0.00302   0.00024   2.29301
   D49       -0.91332   0.00015   0.00082  -0.00063   0.00020  -0.91312
   D50       -0.05335  -0.00000  -0.00261   0.00197  -0.00061  -0.05397
   D51        3.05925   0.00000   0.00485  -0.00499   0.00005   3.05930
   D52       -3.12955  -0.00001  -0.00625   0.00570  -0.00056  -3.13011
   D53       -0.01695  -0.00001   0.00120  -0.00126   0.00010  -0.01685
   D54        2.53855  -0.00015   0.00676  -0.00551   0.00120   2.53975
   D55       -0.13017   0.00010   0.00412  -0.00094   0.00318  -0.12699
   D56       -0.57781  -0.00014  -0.00018   0.00068   0.00068  -0.57713
   D57        3.03665   0.00011  -0.00282   0.00525   0.00266   3.03932
         Item               Value     Threshold  Converged?
 Maximum Force            0.001654     0.000450     NO 
 RMS     Force            0.000377     0.000300     NO 
 Maximum Displacement     0.027689     0.001800     NO 
 RMS     Displacement     0.005926     0.001200     NO 
 Predicted change in Energy=-1.022139D-04
 Lowest energy point so far.  Saving SCF results.
 GradGradGradGradGradGradGradGradGradGradGradGradGradGradGradGradGradGrad

 Leave Link  103 at Tue Apr  9 11:54:44 2024, MaxMem=  7516192768 cpu:               0.6 elap:               0.0
 (Enter /public3/home/scg9909/software-scg9909/g16/l202.exe)
                          Input orientation:                          
 ---------------------------------------------------------------------
 Center     Atomic      Atomic             Coordinates (Angstroms)
 Number     Number       Type             X           Y           Z
 ---------------------------------------------------------------------
      1          8           0       -1.352691    2.532060   -0.385938
      2          6           0       -1.118801    1.337816   -0.337594
      3          6           0       -2.092311    0.188308   -0.030781
      4          6           0       -1.177113   -0.940268    0.486804
      5          6           0        0.121623   -0.715008   -0.306389
      6          6           0        1.513695   -0.969996    0.323457
      7          6           0        2.251029    0.326368    0.023117
      8          6           0        1.401425    1.260261   -0.421145
      9          7           0        0.104068    0.740958   -0.541436
     10          1           0       -2.853786    0.522001    0.677666
     11          1           0       -2.607471   -0.103738   -0.955708
     12          1           0       -1.591440   -1.942090    0.346289
     13          1           0       -0.980330   -0.798201    1.556297
     14          1           0        0.060057   -1.222584   -1.279513
     15          1           0        1.452256   -1.145013    1.408853
     16          1           0        1.992016   -1.852772   -0.112923
     17          1           0        3.306386    0.480322    0.208769
     18          1           0        1.571288    2.301677   -0.659824
 ---------------------------------------------------------------------
                    Distance matrix (angstroms):
                    1          2          3          4          5
     1  O    0.000000
     2  C    1.217892   0.000000
     3  C    2.483214   1.537279   0.000000
     4  C    3.584629   2.423365   1.542453   0.000000
     5  C    3.566986   2.398690   2.406957   1.538380   0.000000
     6  C    4.580809   3.562727   3.804002   2.695926   1.549061
     7  C    4.244904   3.536792   4.345868   3.683956   2.393201
     8  C    3.033788   2.522803   3.675276   3.509352   2.356427
     9  N    2.313952   1.375935   2.321696   2.350579   1.474922
    10  H    2.724862   2.169442   1.092288   2.232911   3.369216
    11  H    2.974314   2.162471   1.098259   2.196940   2.871100
    12  H    4.539953   3.383617   2.220731   1.093187   2.205969
    13  H    3.873186   2.858070   2.174515   1.096687   2.165830
    14  H    4.109950   2.971963   2.860531   2.174895   1.099270
    15  H    4.960834   3.978046   4.051450   2.793864   2.213039
    16  H    5.521626   4.461783   4.566671   3.351972   2.197796
    17  H    5.125457   4.540495   5.411893   4.711385   3.440483
    18  H    2.945801   2.875663   4.275977   4.402121   3.365536
                    6          7          8          9         10
     6  C    0.000000
     7  C    1.521323   0.000000
     8  C    2.353950   1.338414   0.000000
     9  N    2.379591   2.258329   1.402598   0.000000
    10  H    4.628867   5.150325   4.456370   3.206720   0.000000
    11  H    4.401213   4.974747   4.268196   2.870117   1.766390
    12  H    3.253821   4.473802   4.449858   3.295686   2.788382
    13  H    2.787395   3.749264   3.717566   2.818761   2.454539
    14  H    2.178618   2.982693   2.949675   2.098141   3.919772
    15  H    1.101131   2.173307   3.022717   3.029543   4.674994
    16  H    1.094765   2.198692   3.183515   3.236574   5.454024
    17  H    2.308747   1.082565   2.152667   3.299331   6.178133
    18  H    3.416723   2.197794   1.081836   2.145366   4.953524
                   11         12         13         14         15
    11  H    0.000000
    12  H    2.471245   0.000000
    13  H    3.072464   1.773713   0.000000
    14  H    2.910733   2.426595   3.050300   0.000000
    15  H    4.812150   3.320912   2.461604   3.028456   0.000000
    16  H    4.992463   3.613863   3.568369   2.343189   1.762970
    17  H    6.055645   5.465866   4.671872   3.956454   2.742209
    18  H    4.830693   5.387454   4.585977   3.884359   4.021600
                   16         17         18
    16  H    0.000000
    17  H    2.697106   0.000000
    18  H    4.211360   2.661269   0.000000
 Stoichiometry    C7H9NO
 Framework group  C1[X(C7H9NO)]
 Deg. of freedom    48
 Full point group                 C1      NOp   1
 RotChk:  IX=0 Diff= 1.39D-03
 Largest Abelian subgroup         C1      NOp   1
 Largest concise Abelian subgroup C1      NOp   1
                         Standard orientation:                         
 ---------------------------------------------------------------------
 Center     Atomic      Atomic             Coordinates (Angstroms)
 Number     Number       Type             X           Y           Z
 ---------------------------------------------------------------------
      1          8           0       -1.979610   -1.561523   -0.192500
      2          6           0       -1.337266   -0.550157    0.026115
      3          6           0       -1.822490    0.908444    0.009795
      4          6           0       -0.538553    1.720025   -0.258543
      5          6           0        0.546632    0.877591    0.433764
      6          6           0        1.974756    0.750447   -0.152654
      7          6           0        2.188056   -0.755741   -0.170691
      8          6           0        1.038457   -1.397881    0.068954
      9          7           0        0.002700   -0.489643    0.332756
     10          1           0       -2.608156    1.032975   -0.738746
     11          1           0       -2.256821    1.154338    0.988092
     12          1           0       -0.580843    2.746635    0.114743
     13          1           0       -0.339876    1.755722   -1.336493
     14          1           0        0.608930    1.146631    1.497781
     15          1           0        2.045042    1.169710   -1.168414
     16          1           0        2.706101    1.285285    0.461833
     17          1           0        3.130591   -1.231521   -0.409872
     18          1           0        0.815458   -2.456456    0.061343
 ---------------------------------------------------------------------
 Rotational constants (GHZ):           2.8818442           1.7031258           1.1342031
 Leave Link  202 at Tue Apr  9 11:54:44 2024, MaxMem=  7516192768 cpu:               0.1 elap:               0.0
 (Enter /public3/home/scg9909/software-scg9909/g16/l301.exe)
 Standard basis: 6-31G(d) (6D, 7F)
 Ernie: Thresh=  0.10000D-02 Tol=  0.10000D-05 Strict=F.
 There are   153 symmetry adapted cartesian basis functions of A   symmetry.
 There are   153 symmetry adapted basis functions of A   symmetry.
   153 basis functions,   288 primitive gaussians,   153 cartesian basis functions
    33 alpha electrons       33 beta electrons
       nuclear repulsion energy       448.3879049915 Hartrees.
 IExCor=  402 DFT=T Ex+Corr=B3LYP ExCW=0 ScaHFX=  0.200000
 ScaDFX=  0.800000  0.720000  1.000000  0.810000 ScalE2=  1.000000  1.000000
 IRadAn=      5 IRanWt=     -1 IRanGd=            0 ICorTp=0 IEmpDi=141
 NAtoms=   18 NActive=   18 NUniq=   18 SFac= 1.00D+00 NAtFMM=   60 NAOKFM=F Big=F
 Integral buffers will be    131072 words long.
 Raffenetti 2 integral format.
 Two-electron integral symmetry is turned on.
 R6Disp:  Grimme-D3(BJ) Dispersion energy=       -0.0312024539 Hartrees.
 Nuclear repulsion after empirical dispersion term =      448.3567025375 Hartrees.
 Leave Link  301 at Tue Apr  9 11:54:44 2024, MaxMem=  7516192768 cpu:               0.6 elap:               0.0
 (Enter /public3/home/scg9909/software-scg9909/g16/l302.exe)
 NPDir=0 NMtPBC=     1 NCelOv=     1 NCel=       1 NClECP=     1 NCelD=      1
         NCelK=      1 NCelE2=     1 NClLst=     1 CellRange=     0.0.
 One-electron integrals computed using PRISM.
 One-electron integral symmetry used in STVInt
 NBasis=   153 RedAO= T EigKep=  1.81D-03  NBF=   153
 NBsUse=   153 1.00D-06 EigRej= -1.00D+00 NBFU=   153
 Precomputing XC quadrature grid using
 IXCGrd= 4 IRadAn=           5 IRanWt=          -1 IRanGd=           0 AccXCQ= 0.00D+00.
 Generated NRdTot=       0 NPtTot=           0 NUsed=           0 NTot=          32
 NSgBfM=   153   153   153   153   153 MxSgAt=    18 MxSgA2=    18.
 Leave Link  302 at Tue Apr  9 11:54:44 2024, MaxMem=  7516192768 cpu:               2.7 elap:               0.1
 (Enter /public3/home/scg9909/software-scg9909/g16/l303.exe)
 DipDrv:  MaxL=1.
 Leave Link  303 at Tue Apr  9 11:54:44 2024, MaxMem=  7516192768 cpu:               0.3 elap:               0.0
 (Enter /public3/home/scg9909/software-scg9909/g16/l401.exe)
 Initial guess from the checkpoint file:  "/public3/home/scg9909/tmp/Gau-65552.chk"
 B after Tr=     0.000000   -0.000000   -0.000000
         Rot=    1.000000    0.000087    0.000118    0.000073 Ang=   0.02 deg.
 Guess basis will be translated and rotated to current coordinates.
 JPrj=2 DoOrth=T DoCkMO=T.
 Generating alternative initial guess.
 ExpMin= 1.61D-01 ExpMax= 5.48D+03 ExpMxC= 8.25D+02 IAcc=3 IRadAn=         5 AccDes= 0.00D+00
 Harris functional with IExCor=  402 and IRadAn=       5 diagonalized for initial guess.
 HarFok:  IExCor=  402 AccDes= 0.00D+00 IRadAn=         5 IDoV= 1 UseB2=F ITyADJ=14
 ICtDFT=  3500011 ScaDFX=  1.000000  1.000000  1.000000  1.000000
 FoFCou: FMM=F IPFlag=           0 FMFlag=      100000 FMFlg1=           0
         NFxFlg=           0 DoJE=T BraDBF=F KetDBF=T FulRan=T
         wScrn=  0.000000 ICntrl=       500 IOpCl=  0 I1Cent=   200000004 NGrid=           0
         NMat0=    1 NMatS0=      1 NMatT0=    0 NMatD0=    1 NMtDS0=    0 NMtDT0=    0
 Petite list used in FoFCou.
 Harris En= -402.167580059000    
 Leave Link  401 at Tue Apr  9 11:54:45 2024, MaxMem=  7516192768 cpu:               9.9 elap:               0.4
 (Enter /public3/home/scg9909/software-scg9909/g16/l502.exe)
 Integral symmetry usage will be decided dynamically.
 Closed shell SCF:
 Using DIIS extrapolation, IDIIS=  1040.
 NGot=  7516192768 LenX=  7516139403 LenY=  7516115553
 Requested convergence on RMS density matrix=1.00D-08 within 128 cycles.
 Requested convergence on MAX density matrix=1.00D-06.
 Requested convergence on             energy=1.00D-06.
 No special actions if energy rises.
 Fock matrices will be formed incrementally for  20 cycles.
 Integral accuracy reduced to 1.0D-05 until final iterations.

 Cycle   1  Pass 0  IDiag  1:
 FoFJK:  IHMeth= 1 ICntrl=       0 DoSepK=F KAlg= 0 I1Cent=           0 FoldK=F
 IRaf= 970000000 NMat=       1 IRICut=       1 DoRegI=T DoRafI=F ISym2E= 0 IDoP0=0 IntGTp=1.
 FoFCou: FMM=F IPFlag=           0 FMFlag=      100000 FMFlg1=           0
         NFxFlg=           0 DoJE=F BraDBF=F KetDBF=F FulRan=T
         wScrn=  0.000000 ICntrl=         0 IOpCl=  0 I1Cent=           0 NGrid=           0
         NMat0=    1 NMatS0=      1 NMatT0=    0 NMatD0=    1 NMtDS0=    0 NMtDT0=    0
 Symmetry not used in FoFCou.
 E= -402.161205745588    
 DIIS: error= 5.42D-04 at cycle   1 NSaved=   1.
 NSaved= 1 IEnMin= 1 EnMin= -402.161205745588     IErMin= 1 ErrMin= 5.42D-04
 ErrMax= 5.42D-04  0.00D+00 EMaxC= 1.00D-01 BMatC= 1.05D-04 BMatP= 1.05D-04
 IDIUse=3 WtCom= 9.95D-01 WtEn= 5.42D-03
 Coeff-Com:  0.100D+01
 Coeff-En:   0.100D+01
 Coeff:      0.100D+01
 Gap=     1.661 Goal=   None    Shift=    0.000
 RMSDP=1.44D-04 MaxDP=3.53D-03              OVMax= 3.21D-03

 Cycle   2  Pass 0  IDiag  1:
 RMSU=  1.43D-04    CP:  1.00D+00
 E= -402.161400020732     Delta-E=       -0.000194275144 Rises=F Damp=F
 DIIS: error= 6.37D-05 at cycle   2 NSaved=   2.
 NSaved= 2 IEnMin= 2 EnMin= -402.161400020732     IErMin= 2 ErrMin= 6.37D-05
 ErrMax= 6.37D-05  0.00D+00 EMaxC= 1.00D-01 BMatC= 1.53D-06 BMatP= 1.05D-04
 IDIUse=1 WtCom= 1.00D+00 WtEn= 0.00D+00
 Coeff-Com: -0.684D-01 0.107D+01
 Coeff:     -0.684D-01 0.107D+01
 Gap=     0.210 Goal=   None    Shift=    0.000
 RMSDP=1.78D-05 MaxDP=3.29D-04 DE=-1.94D-04 OVMax= 4.11D-04

 Cycle   3  Pass 0  IDiag  1:
 RMSU=  1.36D-05    CP:  1.00D+00  1.08D+00
 E= -402.161401998249     Delta-E=       -0.000001977518 Rises=F Damp=F
 DIIS: error= 6.15D-05 at cycle   3 NSaved=   3.
 NSaved= 3 IEnMin= 3 EnMin= -402.161401998249     IErMin= 3 ErrMin= 6.15D-05
 ErrMax= 6.15D-05  0.00D+00 EMaxC= 1.00D-01 BMatC= 5.02D-07 BMatP= 1.53D-06
 IDIUse=1 WtCom= 1.00D+00 WtEn= 0.00D+00
 Coeff-Com: -0.334D-01 0.418D+00 0.615D+00
 Coeff:     -0.334D-01 0.418D+00 0.615D+00
 Gap=     0.210 Goal=   None    Shift=    0.000
 RMSDP=7.46D-06 MaxDP=1.84D-04 DE=-1.98D-06 OVMax= 3.46D-04

 Initial convergence to 1.0D-05 achieved.  Increase integral accuracy.
 Cycle   4  Pass 1  IDiag  1:
 E= -402.161414225506     Delta-E=       -0.000012227257 Rises=F Damp=F
 DIIS: error= 4.02D-05 at cycle   1 NSaved=   1.
 NSaved= 1 IEnMin= 1 EnMin= -402.161414225506     IErMin= 1 ErrMin= 4.02D-05
 ErrMax= 4.02D-05  0.00D+00 EMaxC= 1.00D-01 BMatC= 1.63D-07 BMatP= 1.63D-07
 IDIUse=1 WtCom= 1.00D+00 WtEn= 0.00D+00
 Coeff-Com:  0.100D+01
 Coeff:      0.100D+01
 Gap=     0.210 Goal=   None    Shift=    0.000
 RMSDP=7.46D-06 MaxDP=1.84D-04 DE=-1.22D-05 OVMax= 4.12D-04

 Cycle   5  Pass 1  IDiag  1:
 RMSU=  7.96D-06    CP:  1.00D+00
 E= -402.161413868266     Delta-E=        0.000000357241 Rises=F Damp=F
 DIIS: error= 7.73D-05 at cycle   2 NSaved=   2.
 NSaved= 2 IEnMin= 1 EnMin= -402.161414225506     IErMin= 1 ErrMin= 4.02D-05
 ErrMax= 7.73D-05  0.00D+00 EMaxC= 1.00D-01 BMatC= 5.93D-07 BMatP= 1.63D-07
 IDIUse=1 WtCom= 1.00D+00 WtEn= 0.00D+00
 Coeff-Com:  0.660D+00 0.340D+00
 Coeff:      0.660D+00 0.340D+00
 Gap=     0.210 Goal=   None    Shift=    0.000
 RMSDP=5.12D-06 MaxDP=1.76D-04 DE= 3.57D-07 OVMax= 2.86D-04

 Cycle   6  Pass 1  IDiag  1:
 RMSU=  2.00D-06    CP:  1.00D+00  4.09D-01
 E= -402.161414363413     Delta-E=       -0.000000495147 Rises=F Damp=F
 DIIS: error= 3.98D-06 at cycle   3 NSaved=   3.
 NSaved= 3 IEnMin= 3 EnMin= -402.161414363413     IErMin= 3 ErrMin= 3.98D-06
 ErrMax= 3.98D-06  0.00D+00 EMaxC= 1.00D-01 BMatC= 5.49D-09 BMatP= 1.63D-07
 IDIUse=1 WtCom= 1.00D+00 WtEn= 0.00D+00
 Coeff-Com:  0.254D+00 0.154D+00 0.592D+00
 Coeff:      0.254D+00 0.154D+00 0.592D+00
 Gap=     0.210 Goal=   None    Shift=    0.000
 RMSDP=6.79D-07 MaxDP=1.98D-05 DE=-4.95D-07 OVMax= 2.50D-05

 Cycle   7  Pass 1  IDiag  1:
 RMSU=  6.35D-07    CP:  1.00D+00  4.22D-01  8.95D-01
 E= -402.161414366363     Delta-E=       -0.000000002950 Rises=F Damp=F
 DIIS: error= 2.20D-06 at cycle   4 NSaved=   4.
 NSaved= 4 IEnMin= 4 EnMin= -402.161414366363     IErMin= 4 ErrMin= 2.20D-06
 ErrMax= 2.20D-06  0.00D+00 EMaxC= 1.00D-01 BMatC= 1.95D-09 BMatP= 5.49D-09
 IDIUse=1 WtCom= 1.00D+00 WtEn= 0.00D+00
 Coeff-Com:  0.221D-01 0.265D-01 0.389D+00 0.563D+00
 Coeff:      0.221D-01 0.265D-01 0.389D+00 0.563D+00
 Gap=     0.210 Goal=   None    Shift=    0.000
 RMSDP=3.32D-07 MaxDP=1.05D-05 DE=-2.95D-09 OVMax= 2.02D-05

 Cycle   8  Pass 1  IDiag  1:
 RMSU=  1.76D-07    CP:  1.00D+00  4.28D-01  9.41D-01  5.90D-01
 E= -402.161414367816     Delta-E=       -0.000000001454 Rises=F Damp=F
 DIIS: error= 1.00D-06 at cycle   5 NSaved=   5.
 NSaved= 5 IEnMin= 5 EnMin= -402.161414367816     IErMin= 5 ErrMin= 1.00D-06
 ErrMax= 1.00D-06  0.00D+00 EMaxC= 1.00D-01 BMatC= 2.68D-10 BMatP= 1.95D-09
 IDIUse=1 WtCom= 1.00D+00 WtEn= 0.00D+00
 Coeff-Com: -0.781D-02 0.350D-02 0.201D+00 0.364D+00 0.439D+00
 Coeff:     -0.781D-02 0.350D-02 0.201D+00 0.364D+00 0.439D+00
 Gap=     0.210 Goal=   None    Shift=    0.000
 RMSDP=1.07D-07 MaxDP=4.17D-06 DE=-1.45D-09 OVMax= 7.20D-06

 Cycle   9  Pass 1  IDiag  1:
 RMSU=  4.31D-08    CP:  1.00D+00  4.29D-01  9.44D-01  6.44D-01  4.83D-01
 E= -402.161414368068     Delta-E=       -0.000000000252 Rises=F Damp=F
 DIIS: error= 1.08D-07 at cycle   6 NSaved=   6.
 NSaved= 6 IEnMin= 6 EnMin= -402.161414368068     IErMin= 6 ErrMin= 1.08D-07
 ErrMax= 1.08D-07  0.00D+00 EMaxC= 1.00D-01 BMatC= 4.55D-12 BMatP= 2.68D-10
 IDIUse=1 WtCom= 1.00D+00 WtEn= 0.00D+00
 Coeff-Com: -0.412D-02 0.405D-05 0.642D-01 0.122D+00 0.192D+00 0.626D+00
 Coeff:     -0.412D-02 0.405D-05 0.642D-01 0.122D+00 0.192D+00 0.626D+00
 Gap=     0.210 Goal=   None    Shift=    0.000
 RMSDP=1.70D-08 MaxDP=5.21D-07 DE=-2.52D-10 OVMax= 7.15D-07

 Cycle  10  Pass 1  IDiag  1:
 RMSU=  1.20D-08    CP:  1.00D+00  4.29D-01  9.47D-01  6.36D-01  5.07D-01
                    CP:  7.94D-01
 E= -402.161414368075     Delta-E=       -0.000000000007 Rises=F Damp=F
 DIIS: error= 2.36D-08 at cycle   7 NSaved=   7.
 NSaved= 7 IEnMin= 7 EnMin= -402.161414368075     IErMin= 7 ErrMin= 2.36D-08
 ErrMax= 2.36D-08  0.00D+00 EMaxC= 1.00D-01 BMatC= 3.53D-13 BMatP= 4.55D-12
 IDIUse=1 WtCom= 1.00D+00 WtEn= 0.00D+00
 Coeff-Com: -0.103D-02-0.289D-03 0.967D-02 0.204D-01 0.443D-01 0.272D+00
 Coeff-Com:  0.655D+00
 Coeff:     -0.103D-02-0.289D-03 0.967D-02 0.204D-01 0.443D-01 0.272D+00
 Coeff:      0.655D+00
 Gap=     0.210 Goal=   None    Shift=    0.000
 RMSDP=4.83D-09 MaxDP=1.37D-07 DE=-7.16D-12 OVMax= 2.14D-07

 SCF Done:  E(RB3LYP) =  -402.161414368     A.U. after   10 cycles
            NFock= 10  Conv=0.48D-08     -V/T= 2.0095
 KE= 3.983837330458D+02 PE=-1.831486020867D+03 EE= 5.825841709152D+02
 Leave Link  502 at Tue Apr  9 11:54:48 2024, MaxMem=  7516192768 cpu:             101.2 elap:               3.6
 (Enter /public3/home/scg9909/software-scg9909/g16/l701.exe)
 ... and contract with generalized density number  0.
 Compute integral first derivatives.
 R6Disp: Adding Grimme-D3(BJ) dispersion energy 1st derivatives to the gradient.
 Leave Link  701 at Tue Apr  9 11:54:48 2024, MaxMem=  7516192768 cpu:               2.2 elap:               0.1
 (Enter /public3/home/scg9909/software-scg9909/g16/l702.exe)
 L702 exits ... SP integral derivatives will be done elsewhere.
 Leave Link  702 at Tue Apr  9 11:54:48 2024, MaxMem=  7516192768 cpu:               0.2 elap:               0.0
 (Enter /public3/home/scg9909/software-scg9909/g16/l703.exe)
 Integral derivatives from FoFJK, PRISM(SPDF).
 Compute integral first derivatives, UseDBF=F ICtDFT=           0.
 Calling FoFJK, ICntrl=      2127 FMM=F ISym2X=0 I1Cent= 0 IOpClX= 0 NMat=1 NMatS=1 NMatT=0.
 FoFJK:  IHMeth= 1 ICntrl=    2127 DoSepK=F KAlg= 0 I1Cent=           0 FoldK=F
 IRaf=         0 NMat=       1 IRICut=       1 DoRegI=T DoRafI=F ISym2E= 0 IDoP0=0 IntGTp=1.
 FoFCou: FMM=F IPFlag=           0 FMFlag=      100000 FMFlg1=         800
         NFxFlg=           0 DoJE=F BraDBF=F KetDBF=F FulRan=T
         wScrn=  0.000000 ICntrl=      2127 IOpCl=  0 I1Cent=           0 NGrid=           0
         NMat0=    1 NMatS0=      1 NMatT0=    0 NMatD0=    1 NMtDS0=    0 NMtDT0=    0
 Symmetry not used in FoFCou.
 Leave Link  703 at Tue Apr  9 11:54:49 2024, MaxMem=  7516192768 cpu:              19.5 elap:               0.7
 (Enter /public3/home/scg9909/software-scg9909/g16/l716.exe)
 Dipole        = 9.65935828D-01 1.17532204D+00 1.10204108D-01
 ***** Axes restored to original set *****
 -------------------------------------------------------------------
 Center     Atomic                   Forces (Hartrees/Bohr)
 Number     Number              X              Y              Z
 -------------------------------------------------------------------
      1        8          -0.000043423    0.000081491   -0.000013579
      2        6          -0.000381151    0.000002391    0.000340098
      3        6          -0.000677143    0.000766780   -0.000240088
      4        6           0.000669740   -0.000076363    0.000223530
      5        6          -0.000552767    0.000672131   -0.000075040
      6        6          -0.000450223   -0.000642378    0.000125331
      7        6           0.000943031   -0.000169522    0.000287692
      8        6          -0.001466656    0.000733583   -0.000113034
      9        7           0.001099982   -0.001101649   -0.000719466
     10        1           0.000294208   -0.000173666    0.000209739
     11        1           0.000218217   -0.000008607   -0.000030654
     12        1          -0.000108479   -0.000137045    0.000045436
     13        1          -0.000064376   -0.000145048   -0.000035438
     14        1           0.000147471   -0.000110420   -0.000020940
     15        1          -0.000081219    0.000225963   -0.000011551
     16        1           0.000146621    0.000140529   -0.000051408
     17        1           0.000044165    0.000014424    0.000003290
     18        1           0.000262002   -0.000072592    0.000076083
 -------------------------------------------------------------------
 Cartesian Forces:  Max     0.001466656 RMS     0.000438906
 Leave Link  716 at Tue Apr  9 11:54:49 2024, MaxMem=  7516192768 cpu:               0.2 elap:               0.0
 (Enter /public3/home/scg9909/software-scg9909/g16/l103.exe)

 GradGradGradGradGradGradGradGradGradGradGradGradGradGradGradGradGradGrad
 Berny optimization.
 Using GEDIIS/GDIIS optimizer.
 FormGI is forming the generalized inverse of G from B-inverse, IUseBI=4.
 Internal  Forces:  Max     0.000767265 RMS     0.000164903
 Search for a local minimum.
 Step number   5 out of a maximum of  108
 All quantities printed in internal units (Hartrees-Bohrs-Radians)
 RMS Force = .16490D-03 SwitMx=.10000D-02 MixMth= 2
 Mixed Optimization -- En-DIIS/RFO-DIIS
 Swapping is turned off.
 Update second derivatives using D2CorX and points    2    3    4    5
 DE= -9.04D-05 DEPred=-1.02D-04 R= 8.84D-01
 TightC=F SS=  1.41D+00  RLast= 6.73D-02 DXNew= 1.3044D+00 2.0203D-01
 Trust test= 8.84D-01 RLast= 6.73D-02 DXMaxT set to 7.76D-01
 ITU=  1  1  1  1  0
     Eigenvalues ---    0.00402   0.00655   0.01067   0.01413   0.02065
     Eigenvalues ---    0.02262   0.02624   0.03253   0.03974   0.04350
     Eigenvalues ---    0.04512   0.05165   0.05497   0.06105   0.06117
     Eigenvalues ---    0.06774   0.07293   0.07477   0.08053   0.08416
     Eigenvalues ---    0.08825   0.10527   0.12541   0.15856   0.15952
     Eigenvalues ---    0.19458   0.22106   0.22396   0.25285   0.26771
     Eigenvalues ---    0.28248   0.28934   0.29683   0.30201   0.33876
     Eigenvalues ---    0.34045   0.34292   0.34333   0.34342   0.34534
     Eigenvalues ---    0.34558   0.35771   0.35887   0.36161   0.46042
     Eigenvalues ---    0.47896   0.56148   0.96228
 En-DIIS/RFO-DIIS/Sim-DIIS IScMMF=       -3 using points:     5    4    3    2
 RFO step:  Lambda=-2.63955962D-05.
 NNeg= 0 NGDIIS= 4 SimSw=  2.50D-01 Rises=F DC= -9.04D-05 SmlDif=  1.00D-05
 NRisDI= 0 DoIntr=F SqrtH=F CThrHd= 10.0 CDAdj=  3.0
 RMS Error=  0.4310019591D-02 NUsed= 4 OKEnD=T EnDIS=F
 InvSVX:  RCond= 6.28D-05 Info=           0 Equed=N FErr=  1.12D-13 BErr=  3.73D-17
 DidBck=F Rises=F RFO-DIIS coefs:    1.83141   -0.48743   -0.57076    0.22678
 Iteration  1 RMS(Cart)=  0.00666030 RMS(Int)=  0.00004033
 Iteration  2 RMS(Cart)=  0.00003554 RMS(Int)=  0.00003101
 Iteration  3 RMS(Cart)=  0.00000000 RMS(Int)=  0.00003101
 ITry= 1 IFail=0 DXMaxC= 2.34D-02 DCOld= 1.00D+10 DXMaxT= 7.76D-01 DXLimC= 3.00D+00 Rises=F
 Variable       Old X    -DE/DX   Delta X   Delta X   Delta X     New X
                                 (Linear)    (Quad)   (Total)
    R1        2.30148   0.00009   0.00038  -0.00031   0.00007   2.30155
    R2        2.90504  -0.00024  -0.00096  -0.00032  -0.00126   2.90377
    R3        2.60014   0.00051   0.00072   0.00072   0.00147   2.60161
    R4        2.91481   0.00040  -0.00024   0.00170   0.00142   2.91624
    R5        2.06412  -0.00012   0.00002  -0.00055  -0.00052   2.06360
    R6        2.07541  -0.00007  -0.00006  -0.00018  -0.00024   2.07517
    R7        2.90712  -0.00013  -0.00084   0.00048  -0.00037   2.90675
    R8        2.06582   0.00016   0.00086  -0.00039   0.00048   2.06630
    R9        2.07244  -0.00007  -0.00064   0.00049  -0.00015   2.07228
   R10        2.92730   0.00000  -0.00035  -0.00029  -0.00063   2.92667
   R11        2.78720  -0.00045  -0.00165   0.00056  -0.00105   2.78614
   R12        2.07732   0.00006  -0.00009   0.00029   0.00020   2.07752
   R13        2.87488   0.00035  -0.00098   0.00239   0.00140   2.87628
   R14        2.08084  -0.00004  -0.00036   0.00037   0.00000   2.08084
   R15        2.06881  -0.00003  -0.00009  -0.00006  -0.00015   2.06866
   R16        2.52924   0.00077   0.00166  -0.00035   0.00129   2.53052
   R17        2.04575   0.00005   0.00079  -0.00075   0.00004   2.04579
   R18        2.65053  -0.00039   0.00041  -0.00054  -0.00014   2.65039
   R19        2.04437  -0.00005  -0.00043   0.00030  -0.00013   2.04425
    A1        2.23896  -0.00002  -0.00148   0.00089  -0.00074   2.23821
    A2        2.20205   0.00003   0.00073  -0.00113  -0.00056   2.20150
    A3        1.84214  -0.00001   0.00108   0.00027   0.00129   1.84343
    A4        1.81146  -0.00007   0.00053  -0.00019   0.00034   1.81180
    A5        1.92036   0.00013   0.00211  -0.00125   0.00087   1.92123
    A6        1.90478  -0.00003  -0.00198   0.00095  -0.00101   1.90376
    A7        2.00372  -0.00018  -0.00201  -0.00112  -0.00312   2.00059
    A8        1.94588  -0.00002  -0.00108   0.00104  -0.00004   1.94584
    A9        1.87597   0.00017   0.00227   0.00060   0.00287   1.87884
   A10        1.79339  -0.00001   0.00253  -0.00051   0.00199   1.79538
   A11        1.98506   0.00002   0.00002  -0.00052  -0.00049   1.98457
   A12        1.91657  -0.00001   0.00004   0.00006   0.00010   1.91667
   A13        1.96913   0.00004   0.00028  -0.00018   0.00010   1.96922
   A14        1.90961   0.00003  -0.00144   0.00178   0.00036   1.90997
   A15        1.88817  -0.00006  -0.00135  -0.00050  -0.00186   1.88631
   A16        2.12342  -0.00030  -0.00258  -0.00169  -0.00429   2.11912
   A17        1.78919   0.00014   0.00171   0.00051   0.00221   1.79140
   A18        1.91935   0.00015   0.00176   0.00079   0.00257   1.92192
   A19        1.81109   0.00002  -0.00064   0.00063   0.00003   1.81112
   A20        1.91162   0.00005   0.00059  -0.00155  -0.00096   1.91066
   A21        1.89027  -0.00004  -0.00091   0.00199   0.00106   1.89133
   A22        1.78750   0.00005   0.00113  -0.00106   0.00010   1.78760
   A23        1.95715  -0.00010  -0.00123  -0.00062  -0.00187   1.95527
   A24        1.94260   0.00012   0.00365  -0.00134   0.00233   1.94493
   A25        1.93594  -0.00008  -0.00342   0.00131  -0.00211   1.93383
   A26        1.97869  -0.00010  -0.00195   0.00150  -0.00047   1.97822
   A27        1.86411   0.00010   0.00165   0.00017   0.00183   1.86593
   A28        1.93099  -0.00031  -0.00186   0.00093  -0.00092   1.93007
   A29        2.16496   0.00016   0.00074  -0.00020   0.00054   2.16550
   A30        2.18527   0.00015   0.00103  -0.00073   0.00031   2.18557
   A31        1.93615  -0.00011   0.00030  -0.00068  -0.00033   1.93583
   A32        2.27215  -0.00023  -0.00109  -0.00073  -0.00178   2.27037
   A33        2.07456   0.00034   0.00066   0.00144   0.00213   2.07669
   A34        1.99893  -0.00003   0.00021  -0.00042  -0.00021   1.99873
   A35        2.27675  -0.00044  -0.00348  -0.00296  -0.00649   2.27026
   A36        1.91857   0.00038  -0.00011   0.00091   0.00076   1.91933
    D1       -2.72478   0.00001   0.00143  -0.00181  -0.00038  -2.72516
    D2       -0.57253  -0.00018   0.00050  -0.00392  -0.00343  -0.57596
    D3        1.48189   0.00009   0.00334  -0.00336  -0.00003   1.48185
    D4        0.40788  -0.00006  -0.00309   0.00175  -0.00135   0.40653
    D5        2.56013  -0.00024  -0.00403  -0.00037  -0.00440   2.55573
    D6       -1.66864   0.00002  -0.00119   0.00019  -0.00101  -1.66964
    D7        3.05348  -0.00008  -0.00819   0.00130  -0.00685   3.04662
    D8        0.40399   0.00002   0.00048   0.00734   0.00778   0.41177
    D9       -0.07943  -0.00002  -0.00375  -0.00217  -0.00591  -0.08534
   D10       -2.72892   0.00008   0.00491   0.00388   0.00873  -2.72019
   D11       -0.56575   0.00005   0.00802  -0.00070   0.00729  -0.55845
   D12       -2.69983   0.00000   0.00599   0.00014   0.00612  -2.69371
   D13        1.46483   0.00007   0.00770   0.00110   0.00878   1.47361
   D14       -2.66235   0.00003   0.00612   0.00159   0.00771  -2.65464
   D15        1.48676  -0.00002   0.00410   0.00243   0.00654   1.49329
   D16       -0.63177   0.00006   0.00580   0.00339   0.00920  -0.62258
   D17        1.48234  -0.00004   0.00548   0.00080   0.00628   1.48862
   D18       -0.65173  -0.00009   0.00346   0.00165   0.00510  -0.64663
   D19       -2.77027  -0.00002   0.00516   0.00261   0.00776  -2.76250
   D20        2.51862  -0.00005  -0.01034  -0.00007  -0.01041   2.50820
   D21        0.51076  -0.00002  -0.00948  -0.00038  -0.00989   0.50087
   D22       -1.49672  -0.00011  -0.01003  -0.00324  -0.01330  -1.51002
   D23       -1.61977  -0.00002  -0.00854  -0.00113  -0.00966  -1.62943
   D24        2.65556   0.00001  -0.00767  -0.00144  -0.00913   2.64643
   D25        0.64808  -0.00007  -0.00823  -0.00430  -0.01254   0.63554
   D26        0.48306  -0.00005  -0.01107  -0.00064  -0.01170   0.47136
   D27       -1.52479  -0.00002  -0.01020  -0.00096  -0.01118  -1.53597
   D28        2.75091  -0.00010  -0.01076  -0.00382  -0.01458   2.73633
   D29       -2.25109   0.00003  -0.00385   0.00197  -0.00189  -2.25298
   D30       -0.17474  -0.00008  -0.00781   0.00260  -0.00521  -0.17995
   D31        1.91233   0.00006  -0.00401   0.00148  -0.00255   1.90978
   D32       -0.25433   0.00005  -0.00356   0.00220  -0.00137  -0.25569
   D33        1.82202  -0.00006  -0.00753   0.00284  -0.00469   1.81733
   D34       -2.37410   0.00009  -0.00373   0.00171  -0.00202  -2.37612
   D35        1.76095   0.00004  -0.00467   0.00413  -0.00055   1.76040
   D36       -2.44589  -0.00007  -0.00864   0.00476  -0.00387  -2.44976
   D37       -0.35882   0.00007  -0.00484   0.00363  -0.00121  -0.36003
   D38       -0.28168  -0.00001   0.00875   0.00146   0.01021  -0.27147
   D39        2.46746  -0.00030   0.00088  -0.00438  -0.00355   2.46391
   D40       -2.50599   0.00026   0.01114   0.00283   0.01399  -2.49199
   D41        0.24315  -0.00003   0.00328  -0.00302   0.00024   0.24339
   D42        1.74685   0.00021   0.01118   0.00342   0.01461   1.76146
   D43       -1.78720  -0.00008   0.00332  -0.00243   0.00085  -1.78634
   D44        0.19818  -0.00006   0.00251  -0.00029   0.00219   0.20037
   D45       -3.00795  -0.00008   0.00137  -0.00022   0.00113  -3.00683
   D46       -1.89302   0.00007   0.00493   0.00041   0.00532  -1.88770
   D47        1.18403   0.00004   0.00379   0.00048   0.00426   1.18829
   D48        2.29301   0.00007   0.00661  -0.00180   0.00481   2.29782
   D49       -0.91312   0.00004   0.00548  -0.00173   0.00374  -0.90937
   D50       -0.05397  -0.00001  -0.00048  -0.00178  -0.00226  -0.05622
   D51        3.05930  -0.00003  -0.00057  -0.00050  -0.00113   3.05817
   D52       -3.13011   0.00002   0.00070  -0.00188  -0.00119  -3.13130
   D53       -0.01685  -0.00001   0.00060  -0.00060  -0.00006  -0.01690
   D54        2.53975  -0.00014  -0.01012  -0.00284  -0.01290   2.52685
   D55       -0.12699   0.00004  -0.00191   0.00323   0.00133  -0.12566
   D56       -0.57713  -0.00011  -0.00987  -0.00392  -0.01382  -0.59095
   D57        3.03932   0.00007  -0.00166   0.00215   0.00040   3.03972
         Item               Value     Threshold  Converged?
 Maximum Force            0.000767     0.000450     NO 
 RMS     Force            0.000165     0.000300     YES
 Maximum Displacement     0.023394     0.001800     NO 
 RMS     Displacement     0.006665     0.001200     NO 
 Predicted change in Energy=-1.184052D-05
 Lowest energy point so far.  Saving SCF results.
 GradGradGradGradGradGradGradGradGradGradGradGradGradGradGradGradGradGrad

 Leave Link  103 at Tue Apr  9 11:54:49 2024, MaxMem=  7516192768 cpu:               0.6 elap:               0.0
 (Enter /public3/home/scg9909/software-scg9909/g16/l202.exe)
                          Input orientation:                          
 ---------------------------------------------------------------------
 Center     Atomic      Atomic             Coordinates (Angstroms)
 Number     Number       Type             X           Y           Z
 ---------------------------------------------------------------------
      1          8           0       -1.348121    2.532140   -0.381459
      2          6           0       -1.117002    1.337143   -0.337719
      3          6           0       -2.091745    0.190649   -0.026918
      4          6           0       -1.176640   -0.943211    0.481439
      5          6           0        0.122079   -0.716570   -0.311010
      6          6           0        1.511003   -0.968047    0.326337
      7          6           0        2.249586    0.327950    0.023736
      8          6           0        1.399917    1.260076   -0.426131
      9          7           0        0.104119    0.738081   -0.550632
     10          1           0       -2.845301    0.523224    0.690046
     11          1           0       -2.613710   -0.096692   -0.949353
     12          1           0       -1.593556   -1.943462    0.335533
     13          1           0       -0.978948   -0.809757    1.551791
     14          1           0        0.066519   -1.228349   -1.282411
     15          1           0        1.442856   -1.134805    1.412635
     16          1           0        1.993494   -1.852433   -0.101920
     17          1           0        3.304185    0.483366    0.212581
     18          1           0        1.571166    2.300797   -0.666542
 ---------------------------------------------------------------------
                    Distance matrix (angstroms):
                    1          2          3          4          5
     1  O    0.000000
     2  C    1.217928   0.000000
     3  C    2.482188   1.536609   0.000000
     4  C    3.584977   2.423755   1.543206   0.000000
     5  C    3.566591   2.398702   2.409310   1.538185   0.000000
     6  C    4.574590   3.558269   3.800942   2.692229   1.548729
     7  C    4.238648   3.533134   4.343797   3.682983   2.393609
     8  C    3.028508   2.519651   3.673520   3.509530   2.356534
     9  N    2.314362   1.376715   2.322881   2.352075   1.474364
    10  H    2.724961   2.169281   1.092012   2.231227   3.368166
    11  H    2.972369   2.161044   1.098134   2.197482   2.876851
    12  H    4.539309   3.382711   2.221259   1.093440   2.206056
    13  H    3.878404   2.863300   2.175191   1.096606   2.165865
    14  H    4.117548   2.979079   2.871919   2.176675   1.099374
    15  H    4.945181   3.965745   4.040117   2.786681   2.211407
    16  H    5.519875   4.461411   4.568259   3.349141   2.199113
    17  H    5.118038   4.536371   5.409169   4.710117   3.440900
    18  H    2.942283   2.874544   4.275366   4.403621   3.366119
                    6          7          8          9         10
     6  C    0.000000
     7  C    1.522064   0.000000
     8  C    2.354374   1.339095   0.000000
     9  N    2.378922   2.258569   1.402524   0.000000
    10  H    4.618826   5.141981   4.450919   3.206949   0.000000
    11  H    4.404531   4.977838   4.268932   2.870961   1.767925
    12  H    3.254198   4.475072   4.450131   3.295157   2.788742
    13  H    2.779685   3.748701   3.722282   2.826485   2.450044
    14  H    2.177696   2.982259   2.950157   2.098514   3.929031
    15  H    1.101134   2.172442   3.019662   3.025613   4.653974
    16  H    1.094688   2.198964   3.185147   3.237568   5.448384
    17  H    2.309771   1.082588   2.153478   3.299666   6.168122
    18  H    3.416836   2.197467   1.081769   2.146565   4.950280
                   11         12         13         14         15
    11  H    0.000000
    12  H    2.470264   0.000000
    13  H    3.071910   1.772657   0.000000
    14  H    2.928344   2.425896   3.049740   0.000000
    15  H    4.807534   3.321727   2.447478   3.027594   0.000000
    16  H    5.002709   3.614772   3.557716   2.344413   1.764106
    17  H    6.058716   5.467401   4.670211   3.955686   2.742837
    18  H    4.831265   5.388260   4.593432   3.885631   4.017810
                   16         17         18
    16  H    0.000000
    17  H    2.696809   0.000000
    18  H    4.212657   2.660689   0.000000
 Stoichiometry    C7H9NO
 Framework group  C1[X(C7H9NO)]
 Deg. of freedom    48
 Full point group                 C1      NOp   1
 RotChk:  IX=0 Diff= 1.17D-03
 Largest Abelian subgroup         C1      NOp   1
 Largest concise Abelian subgroup C1      NOp   1
                         Standard orientation:                         
 ---------------------------------------------------------------------
 Center     Atomic      Atomic             Coordinates (Angstroms)
 Number     Number       Type             X           Y           Z
 ---------------------------------------------------------------------
      1          8           0       -1.974845   -1.563049   -0.196218
      2          6           0       -1.335407   -0.550671    0.026401
      3          6           0       -1.823258    0.906288    0.005410
      4          6           0       -0.538628    1.721160   -0.253805
      5          6           0        0.546910    0.878328    0.437031
      6          6           0        1.970991    0.751217   -0.158283
      7          6           0        2.186103   -0.755491   -0.173744
      8          6           0        1.037165   -1.397667    0.072685
      9          7           0        0.003326   -0.488840    0.341543
     10          1           0       -2.601151    1.030307   -0.750890
     11          1           0       -2.264938    1.150988    0.980571
     12          1           0       -0.584428    2.746178    0.124151
     13          1           0       -0.336716    1.764305   -1.330798
     14          1           0        0.616958    1.149772    1.500062
     15          1           0        2.031326    1.165292   -1.176810
     16          1           0        2.707439    1.288320    0.447938
     17          1           0        3.127663   -1.231286   -0.416803
     18          1           0        0.816061   -2.456586    0.067347
 ---------------------------------------------------------------------
 Rotational constants (GHZ):           2.8774548           1.7061551           1.1356835
 Leave Link  202 at Tue Apr  9 11:54:49 2024, MaxMem=  7516192768 cpu:               0.1 elap:               0.0
 (Enter /public3/home/scg9909/software-scg9909/g16/l301.exe)
 Standard basis: 6-31G(d) (6D, 7F)
 Ernie: Thresh=  0.10000D-02 Tol=  0.10000D-05 Strict=F.
 There are   153 symmetry adapted cartesian basis functions of A   symmetry.
 There are   153 symmetry adapted basis functions of A   symmetry.
   153 basis functions,   288 primitive gaussians,   153 cartesian basis functions
    33 alpha electrons       33 beta electrons
       nuclear repulsion energy       448.4319705068 Hartrees.
 IExCor=  402 DFT=T Ex+Corr=B3LYP ExCW=0 ScaHFX=  0.200000
 ScaDFX=  0.800000  0.720000  1.000000  0.810000 ScalE2=  1.000000  1.000000
 IRadAn=      5 IRanWt=     -1 IRanGd=            0 ICorTp=0 IEmpDi=141
 NAtoms=   18 NActive=   18 NUniq=   18 SFac= 1.00D+00 NAtFMM=   60 NAOKFM=F Big=F
 Integral buffers will be    131072 words long.
 Raffenetti 2 integral format.
 Two-electron integral symmetry is turned on.
 R6Disp:  Grimme-D3(BJ) Dispersion energy=       -0.0312100700 Hartrees.
 Nuclear repulsion after empirical dispersion term =      448.4007604368 Hartrees.
 Leave Link  301 at Tue Apr  9 11:54:49 2024, MaxMem=  7516192768 cpu:               0.6 elap:               0.0
 (Enter /public3/home/scg9909/software-scg9909/g16/l302.exe)
 NPDir=0 NMtPBC=     1 NCelOv=     1 NCel=       1 NClECP=     1 NCelD=      1
         NCelK=      1 NCelE2=     1 NClLst=     1 CellRange=     0.0.
 One-electron integrals computed using PRISM.
 One-electron integral symmetry used in STVInt
 NBasis=   153 RedAO= T EigKep=  1.82D-03  NBF=   153
 NBsUse=   153 1.00D-06 EigRej= -1.00D+00 NBFU=   153
 Precomputing XC quadrature grid using
 IXCGrd= 4 IRadAn=           5 IRanWt=          -1 IRanGd=           0 AccXCQ= 0.00D+00.
 Generated NRdTot=       0 NPtTot=           0 NUsed=           0 NTot=          32
 NSgBfM=   153   153   153   153   153 MxSgAt=    18 MxSgA2=    18.
 Leave Link  302 at Tue Apr  9 11:54:49 2024, MaxMem=  7516192768 cpu:               2.6 elap:               0.1
 (Enter /public3/home/scg9909/software-scg9909/g16/l303.exe)
 DipDrv:  MaxL=1.
 Leave Link  303 at Tue Apr  9 11:54:49 2024, MaxMem=  7516192768 cpu:               0.3 elap:               0.0
 (Enter /public3/home/scg9909/software-scg9909/g16/l401.exe)
 Initial guess from the checkpoint file:  "/public3/home/scg9909/tmp/Gau-65552.chk"
 B after Tr=    -0.000000    0.000000    0.000000
         Rot=    1.000000    0.000017   -0.000073   -0.000309 Ang=   0.04 deg.
 Guess basis will be translated and rotated to current coordinates.
 JPrj=2 DoOrth=T DoCkMO=T.
 Generating alternative initial guess.
 ExpMin= 1.61D-01 ExpMax= 5.48D+03 ExpMxC= 8.25D+02 IAcc=3 IRadAn=         5 AccDes= 0.00D+00
 Harris functional with IExCor=  402 and IRadAn=       5 diagonalized for initial guess.
 HarFok:  IExCor=  402 AccDes= 0.00D+00 IRadAn=         5 IDoV= 1 UseB2=F ITyADJ=14
 ICtDFT=  3500011 ScaDFX=  1.000000  1.000000  1.000000  1.000000
 FoFCou: FMM=F IPFlag=           0 FMFlag=      100000 FMFlg1=           0
         NFxFlg=           0 DoJE=T BraDBF=F KetDBF=T FulRan=T
         wScrn=  0.000000 ICntrl=       500 IOpCl=  0 I1Cent=   200000004 NGrid=           0
         NMat0=    1 NMatS0=      1 NMatT0=    0 NMatD0=    1 NMtDS0=    0 NMtDT0=    0
 Petite list used in FoFCou.
 Harris En= -402.167548063720    
 Leave Link  401 at Tue Apr  9 11:54:50 2024, MaxMem=  7516192768 cpu:               9.9 elap:               0.4
 (Enter /public3/home/scg9909/software-scg9909/g16/l502.exe)
 Integral symmetry usage will be decided dynamically.
 Closed shell SCF:
 Using DIIS extrapolation, IDIIS=  1040.
 NGot=  7516192768 LenX=  7516139403 LenY=  7516115553
 Requested convergence on RMS density matrix=1.00D-08 within 128 cycles.
 Requested convergence on MAX density matrix=1.00D-06.
 Requested convergence on             energy=1.00D-06.
 No special actions if energy rises.
 Fock matrices will be formed incrementally for  20 cycles.
 Integral accuracy reduced to 1.0D-05 until final iterations.

 Cycle   1  Pass 0  IDiag  1:
 FoFJK:  IHMeth= 1 ICntrl=       0 DoSepK=F KAlg= 0 I1Cent=           0 FoldK=F
 IRaf= 970000000 NMat=       1 IRICut=       1 DoRegI=T DoRafI=F ISym2E= 0 IDoP0=0 IntGTp=1.
 FoFCou: FMM=F IPFlag=           0 FMFlag=      100000 FMFlg1=           0
         NFxFlg=           0 DoJE=F BraDBF=F KetDBF=F FulRan=T
         wScrn=  0.000000 ICntrl=         0 IOpCl=  0 I1Cent=           0 NGrid=           0
         NMat0=    1 NMatS0=      1 NMatT0=    0 NMatD0=    1 NMtDS0=    0 NMtDT0=    0
 Symmetry not used in FoFCou.
 E= -402.161309985032    
 DIIS: error= 3.76D-04 at cycle   1 NSaved=   1.
 NSaved= 1 IEnMin= 1 EnMin= -402.161309985032     IErMin= 1 ErrMin= 3.76D-04
 ErrMax= 3.76D-04  0.00D+00 EMaxC= 1.00D-01 BMatC= 5.46D-05 BMatP= 5.46D-05
 IDIUse=3 WtCom= 9.96D-01 WtEn= 3.76D-03
 Coeff-Com:  0.100D+01
 Coeff-En:   0.100D+01
 Coeff:      0.100D+01
 Gap=     1.659 Goal=   None    Shift=    0.000
 RMSDP=8.51D-05 MaxDP=1.27D-03              OVMax= 2.62D-03

 Cycle   2  Pass 0  IDiag  1:
 RMSU=  8.51D-05    CP:  1.00D+00
 E= -402.161421193998     Delta-E=       -0.000111208966 Rises=F Damp=F
 DIIS: error= 4.60D-05 at cycle   2 NSaved=   2.
 NSaved= 2 IEnMin= 2 EnMin= -402.161421193998     IErMin= 2 ErrMin= 4.60D-05
 ErrMax= 4.60D-05  0.00D+00 EMaxC= 1.00D-01 BMatC= 8.59D-07 BMatP= 5.46D-05
 IDIUse=1 WtCom= 1.00D+00 WtEn= 0.00D+00
 Coeff-Com: -0.724D-01 0.107D+01
 Coeff:     -0.724D-01 0.107D+01
 Gap=     0.210 Goal=   None    Shift=    0.000
 RMSDP=1.36D-05 MaxDP=1.71D-04 DE=-1.11D-04 OVMax= 4.51D-04

 Cycle   3  Pass 0  IDiag  1:
 RMSU=  1.21D-05    CP:  1.00D+00  1.07D+00
 E= -402.161422389018     Delta-E=       -0.000001195020 Rises=F Damp=F
 DIIS: error= 4.28D-05 at cycle   3 NSaved=   3.
 NSaved= 3 IEnMin= 3 EnMin= -402.161422389018     IErMin= 3 ErrMin= 4.28D-05
 ErrMax= 4.28D-05  0.00D+00 EMaxC= 1.00D-01 BMatC= 3.46D-07 BMatP= 8.59D-07
 IDIUse=1 WtCom= 1.00D+00 WtEn= 0.00D+00
 Coeff-Com: -0.370D-01 0.453D+00 0.584D+00
 Coeff:     -0.370D-01 0.453D+00 0.584D+00
 Gap=     0.210 Goal=   None    Shift=    0.000
 RMSDP=5.98D-06 MaxDP=1.46D-04 DE=-1.20D-06 OVMax= 2.42D-04

 Initial convergence to 1.0D-05 achieved.  Increase integral accuracy.
 Cycle   4  Pass 1  IDiag  1:
 E= -402.161435814050     Delta-E=       -0.000013425032 Rises=F Damp=F
 DIIS: error= 3.15D-05 at cycle   1 NSaved=   1.
 NSaved= 1 IEnMin= 1 EnMin= -402.161435814050     IErMin= 1 ErrMin= 3.15D-05
 ErrMax= 3.15D-05  0.00D+00 EMaxC= 1.00D-01 BMatC= 1.26D-07 BMatP= 1.26D-07
 IDIUse=1 WtCom= 1.00D+00 WtEn= 0.00D+00
 Coeff-Com:  0.100D+01
 Coeff:      0.100D+01
 Gap=     0.210 Goal=   None    Shift=    0.000
 RMSDP=5.98D-06 MaxDP=1.46D-04 DE=-1.34D-05 OVMax= 2.82D-04

 Cycle   5  Pass 1  IDiag  1:
 RMSU=  7.15D-06    CP:  1.00D+00
 E= -402.161435464958     Delta-E=        0.000000349092 Rises=F Damp=F
 DIIS: error= 6.74D-05 at cycle   2 NSaved=   2.
 NSaved= 2 IEnMin= 1 EnMin= -402.161435814050     IErMin= 1 ErrMin= 3.15D-05
 ErrMax= 6.74D-05  0.00D+00 EMaxC= 1.00D-01 BMatC= 5.66D-07 BMatP= 1.26D-07
 IDIUse=1 WtCom= 1.00D+00 WtEn= 0.00D+00
 Coeff-Com:  0.685D+00 0.315D+00
 Coeff:      0.685D+00 0.315D+00
 Gap=     0.210 Goal=   None    Shift=    0.000
 RMSDP=4.79D-06 MaxDP=1.61D-04 DE= 3.49D-07 OVMax= 2.18D-04

 Cycle   6  Pass 1  IDiag  1:
 RMSU=  1.89D-06    CP:  1.00D+00  3.89D-01
 E= -402.161435916707     Delta-E=       -0.000000451749 Rises=F Damp=F
 DIIS: error= 2.75D-06 at cycle   3 NSaved=   3.
 NSaved= 3 IEnMin= 3 EnMin= -402.161435916707     IErMin= 3 ErrMin= 2.75D-06
 ErrMax= 2.75D-06  0.00D+00 EMaxC= 1.00D-01 BMatC= 2.87D-09 BMatP= 1.26D-07
 IDIUse=1 WtCom= 1.00D+00 WtEn= 0.00D+00
 Coeff-Com:  0.166D+00 0.107D+00 0.727D+00
 Coeff:      0.166D+00 0.107D+00 0.727D+00
 Gap=     0.210 Goal=   None    Shift=    0.000
 RMSDP=4.72D-07 MaxDP=1.11D-05 DE=-4.52D-07 OVMax= 1.23D-05

 Cycle   7  Pass 1  IDiag  1:
 RMSU=  4.34D-07    CP:  1.00D+00  4.12D-01  9.54D-01
 E= -402.161435918418     Delta-E=       -0.000000001712 Rises=F Damp=F
 DIIS: error= 1.24D-06 at cycle   4 NSaved=   4.
 NSaved= 4 IEnMin= 4 EnMin= -402.161435918418     IErMin= 4 ErrMin= 1.24D-06
 ErrMax= 1.24D-06  0.00D+00 EMaxC= 1.00D-01 BMatC= 8.57D-10 BMatP= 2.87D-09
 IDIUse=1 WtCom= 1.00D+00 WtEn= 0.00D+00
 Coeff-Com: -0.600D-02 0.146D-01 0.402D+00 0.590D+00
 Coeff:     -0.600D-02 0.146D-01 0.402D+00 0.590D+00
 Gap=     0.210 Goal=   None    Shift=    0.000
 RMSDP=1.93D-07 MaxDP=5.22D-06 DE=-1.71D-09 OVMax= 5.34D-06

 Cycle   8  Pass 1  IDiag  1:
 RMSU=  9.22D-08    CP:  1.00D+00  4.18D-01  9.75D-01  6.36D-01
 E= -402.161435919219     Delta-E=       -0.000000000801 Rises=F Damp=F
 DIIS: error= 1.42D-07 at cycle   5 NSaved=   5.
 NSaved= 5 IEnMin= 5 EnMin= -402.161435919219     IErMin= 5 ErrMin= 1.42D-07
 ErrMax= 1.42D-07  0.00D+00 EMaxC= 1.00D-01 BMatC= 1.03D-11 BMatP= 8.57D-10
 IDIUse=1 WtCom= 1.00D+00 WtEn= 0.00D+00
 Coeff-Com: -0.597D-02 0.228D-02 0.131D+00 0.217D+00 0.656D+00
 Coeff:     -0.597D-02 0.228D-02 0.131D+00 0.217D+00 0.656D+00
 Gap=     0.210 Goal=   None    Shift=    0.000
 RMSDP=3.60D-08 MaxDP=6.69D-07 DE=-8.01D-10 OVMax= 1.36D-06

 Cycle   9  Pass 1  IDiag  1:
 RMSU=  2.80D-08    CP:  1.00D+00  4.17D-01  9.82D-01  6.41D-01  8.06D-01
 E= -402.161435919226     Delta-E=       -0.000000000007 Rises=F Damp=F
 DIIS: error= 6.81D-08 at cycle   6 NSaved=   6.
 NSaved= 6 IEnMin= 6 EnMin= -402.161435919226     IErMin= 6 ErrMin= 6.81D-08
 ErrMax= 6.81D-08  0.00D+00 EMaxC= 1.00D-01 BMatC= 2.05D-12 BMatP= 1.03D-11
 IDIUse=1 WtCom= 1.00D+00 WtEn= 0.00D+00
 Coeff-Com: -0.270D-02-0.376D-04 0.346D-01 0.649D-01 0.343D+00 0.560D+00
 Coeff:     -0.270D-02-0.376D-04 0.346D-01 0.649D-01 0.343D+00 0.560D+00
 Gap=     0.210 Goal=   None    Shift=    0.000
 RMSDP=1.19D-08 MaxDP=2.71D-07 DE=-6.71D-12 OVMax= 4.62D-07

 Cycle  10  Pass 1  IDiag  1:
 RMSU=  8.89D-09    CP:  1.00D+00  4.18D-01  9.81D-01  6.46D-01  8.51D-01
                    CP:  7.72D-01
 E= -402.161435919230     Delta-E=       -0.000000000004 Rises=F Damp=F
 DIIS: error= 2.18D-08 at cycle   7 NSaved=   7.
 NSaved= 7 IEnMin= 7 EnMin= -402.161435919230     IErMin= 7 ErrMin= 2.18D-08
 ErrMax= 2.18D-08  0.00D+00 EMaxC= 1.00D-01 BMatC= 2.34D-13 BMatP= 2.05D-12
 IDIUse=1 WtCom= 1.00D+00 WtEn= 0.00D+00
 Coeff-Com: -0.505D-03-0.272D-03-0.365D-03 0.304D-02 0.791D-01 0.279D+00
 Coeff-Com:  0.640D+00
 Coeff:     -0.505D-03-0.272D-03-0.365D-03 0.304D-02 0.791D-01 0.279D+00
 Coeff:      0.640D+00
 Gap=     0.210 Goal=   None    Shift=    0.000
 RMSDP=4.37D-09 MaxDP=1.30D-07 DE=-4.09D-12 OVMax= 2.56D-07

 SCF Done:  E(RB3LYP) =  -402.161435919     A.U. after   10 cycles
            NFock= 10  Conv=0.44D-08     -V/T= 2.0095
 KE= 3.983823091195D+02 PE=-1.831574974188D+03 EE= 5.826304687124D+02
 Leave Link  502 at Tue Apr  9 11:54:53 2024, MaxMem=  7516192768 cpu:              97.7 elap:               3.5
 (Enter /public3/home/scg9909/software-scg9909/g16/l701.exe)
 ... and contract with generalized density number  0.
 Compute integral first derivatives.
 R6Disp: Adding Grimme-D3(BJ) dispersion energy 1st derivatives to the gradient.
 Leave Link  701 at Tue Apr  9 11:54:53 2024, MaxMem=  7516192768 cpu:               2.1 elap:               0.1
 (Enter /public3/home/scg9909/software-scg9909/g16/l702.exe)
 L702 exits ... SP integral derivatives will be done elsewhere.
 Leave Link  702 at Tue Apr  9 11:54:54 2024, MaxMem=  7516192768 cpu:               0.2 elap:               0.0
 (Enter /public3/home/scg9909/software-scg9909/g16/l703.exe)
 Integral derivatives from FoFJK, PRISM(SPDF).
 Compute integral first derivatives, UseDBF=F ICtDFT=           0.
 Calling FoFJK, ICntrl=      2127 FMM=F ISym2X=0 I1Cent= 0 IOpClX= 0 NMat=1 NMatS=1 NMatT=0.
 FoFJK:  IHMeth= 1 ICntrl=    2127 DoSepK=F KAlg= 0 I1Cent=           0 FoldK=F
 IRaf=         0 NMat=       1 IRICut=       1 DoRegI=T DoRafI=F ISym2E= 0 IDoP0=0 IntGTp=1.
 FoFCou: FMM=F IPFlag=           0 FMFlag=      100000 FMFlg1=         800
         NFxFlg=           0 DoJE=F BraDBF=F KetDBF=F FulRan=T
         wScrn=  0.000000 ICntrl=      2127 IOpCl=  0 I1Cent=           0 NGrid=           0
         NMat0=    1 NMatS0=      1 NMatT0=    0 NMatD0=    1 NMtDS0=    0 NMtDT0=    0
 Symmetry not used in FoFCou.
 Leave Link  703 at Tue Apr  9 11:54:54 2024, MaxMem=  7516192768 cpu:              20.2 elap:               0.7
 (Enter /public3/home/scg9909/software-scg9909/g16/l716.exe)
 Dipole        = 9.59202407D-01 1.17671673D+00 1.08983022D-01
 ***** Axes restored to original set *****
 -------------------------------------------------------------------
 Center     Atomic                   Forces (Hartrees/Bohr)
 Number     Number              X              Y              Z
 -------------------------------------------------------------------
      1        8           0.000058160   -0.000083543   -0.000087565
      2        6          -0.000280602    0.000172814    0.000485575
      3        6          -0.000172914    0.000113021   -0.000241842
      4        6           0.000189863   -0.000032252    0.000120350
      5        6          -0.000132993    0.000161150   -0.000165380
      6        6           0.000065599   -0.000083662    0.000182386
      7        6           0.000194974    0.000134318    0.000074195
      8        6          -0.000284961   -0.000134738    0.000105114
      9        7           0.000313416   -0.000335380   -0.000558192
     10        1           0.000036588    0.000023576    0.000038332
     11        1          -0.000004188   -0.000024693    0.000067268
     12        1          -0.000024419    0.000020428   -0.000030452
     13        1          -0.000021231   -0.000002495   -0.000023201
     14        1          -0.000052213    0.000028995    0.000041426
     15        1           0.000043203    0.000010660   -0.000032110
     16        1           0.000010950    0.000054490   -0.000027444
     17        1           0.000015534    0.000006236    0.000026750
     18        1           0.000045236   -0.000028924    0.000024790
 -------------------------------------------------------------------
 Cartesian Forces:  Max     0.000558192 RMS     0.000158293
 Leave Link  716 at Tue Apr  9 11:54:54 2024, MaxMem=  7516192768 cpu:               0.2 elap:               0.0
 (Enter /public3/home/scg9909/software-scg9909/g16/l103.exe)

 GradGradGradGradGradGradGradGradGradGradGradGradGradGradGradGradGradGrad
 Berny optimization.
 Using GEDIIS/GDIIS optimizer.
 FormGI is forming the generalized inverse of G from B-inverse, IUseBI=4.
 Internal  Forces:  Max     0.000287451 RMS     0.000062279
 Search for a local minimum.
 Step number   6 out of a maximum of  108
 All quantities printed in internal units (Hartrees-Bohrs-Radians)
 RMS Force = .62279D-04 SwitMx=.10000D-02 MixMth= 2
 Mixed Optimization -- En-DIIS/RFO-DIIS
 Swapping is turned off.
 Update second derivatives using D2CorX and points    2    3    4    5    6
 DE= -2.16D-05 DEPred=-1.18D-05 R= 1.82D+00
 TightC=F SS=  1.41D+00  RLast= 5.60D-02 DXNew= 1.3044D+00 1.6790D-01
 Trust test= 1.82D+00 RLast= 5.60D-02 DXMaxT set to 7.76D-01
 ITU=  1  1  1  1  1  0
     Eigenvalues ---    0.00382   0.00657   0.00906   0.01411   0.01924
     Eigenvalues ---    0.02244   0.02612   0.03189   0.03996   0.04356
     Eigenvalues ---    0.04517   0.05165   0.05524   0.05988   0.06282
     Eigenvalues ---    0.06790   0.07334   0.07485   0.08061   0.08276
     Eigenvalues ---    0.08830   0.10783   0.12585   0.15525   0.15950
     Eigenvalues ---    0.19401   0.22148   0.22382   0.25229   0.25703
     Eigenvalues ---    0.28391   0.29053   0.29412   0.30701   0.33894
     Eigenvalues ---    0.34041   0.34276   0.34311   0.34343   0.34525
     Eigenvalues ---    0.34545   0.35520   0.35794   0.36085   0.45172
     Eigenvalues ---    0.47946   0.55911   0.96358
 En-DIIS/RFO-DIIS/Sim-DIIS IScMMF=       -3 using points:     6    5    4    3    2
 RFO step:  Lambda=-7.87306699D-06.
 NNeg= 0 NGDIIS= 5 SimSw=  2.50D-01 Rises=F DC= -2.16D-05 SmlDif=  1.00D-05
 NRisDI= 0 DoIntr=F SqrtH=F CThrHd= 10.0 CDAdj=  3.0
 RMS Error=  0.2876029213D-02 NUsed= 5 OKEnD=T EnDIS=F
 InvSVX:  RCond= 4.98D-06 Info=           0 Equed=N FErr=  3.13D-13 BErr=  6.93D-17
 DidBck=F Rises=F RFO-DIIS coefs:    1.47546   -0.38782   -0.07256   -0.05132    0.03624
 Iteration  1 RMS(Cart)=  0.00314333 RMS(Int)=  0.00001359
 Iteration  2 RMS(Cart)=  0.00001044 RMS(Int)=  0.00001135
 Iteration  3 RMS(Cart)=  0.00000000 RMS(Int)=  0.00001135
 ITry= 1 IFail=0 DXMaxC= 1.17D-02 DCOld= 1.00D+10 DXMaxT= 7.76D-01 DXLimC= 3.00D+00 Rises=F
 Variable       Old X    -DE/DX   Delta X   Delta X   Delta X     New X
                                 (Linear)    (Quad)   (Total)
    R1        2.30155  -0.00009   0.00008  -0.00019  -0.00011   2.30144
    R2        2.90377  -0.00006  -0.00067  -0.00003  -0.00070   2.90307
    R3        2.60161   0.00029   0.00088   0.00024   0.00114   2.60275
    R4        2.91624   0.00016   0.00097  -0.00034   0.00061   2.91685
    R5        2.06360   0.00001  -0.00027   0.00019  -0.00008   2.06352
    R6        2.07517  -0.00005  -0.00016  -0.00007  -0.00023   2.07495
    R7        2.90675   0.00002  -0.00043   0.00054   0.00010   2.90685
    R8        2.06630  -0.00001   0.00037  -0.00032   0.00005   2.06635
    R9        2.07228  -0.00003  -0.00016   0.00005  -0.00011   2.07217
   R10        2.92667   0.00024  -0.00015   0.00086   0.00071   2.92738
   R11        2.78614  -0.00024  -0.00085   0.00021  -0.00061   2.78553
   R12        2.07752  -0.00005   0.00012  -0.00027  -0.00015   2.07736
   R13        2.87628   0.00005   0.00073  -0.00042   0.00029   2.87658
   R14        2.08084  -0.00004  -0.00009   0.00001  -0.00008   2.08076
   R15        2.06866  -0.00003  -0.00007  -0.00007  -0.00015   2.06851
   R16        2.53052   0.00003   0.00101  -0.00089   0.00012   2.53064
   R17        2.04579   0.00002   0.00012  -0.00006   0.00006   2.04585
   R18        2.65039  -0.00009  -0.00040   0.00048   0.00008   2.65047
   R19        2.04425  -0.00003  -0.00011   0.00000  -0.00011   2.04413
    A1        2.23821   0.00007  -0.00052   0.00048  -0.00007   2.23815
    A2        2.20150  -0.00007  -0.00024  -0.00040  -0.00067   2.20082
    A3        1.84343  -0.00000   0.00079  -0.00006   0.00074   1.84417
    A4        1.81180  -0.00009   0.00021  -0.00059  -0.00038   1.81142
    A5        1.92123   0.00001   0.00063  -0.00080  -0.00017   1.92106
    A6        1.90376   0.00007  -0.00061   0.00105   0.00044   1.90421
    A7        2.00059   0.00002  -0.00198   0.00098  -0.00100   1.99959
    A8        1.94584   0.00001  -0.00020   0.00049   0.00029   1.94613
    A9        1.87884  -0.00000   0.00189  -0.00108   0.00081   1.87965
   A10        1.79538   0.00006   0.00108   0.00020   0.00128   1.79667
   A11        1.98457  -0.00004  -0.00015  -0.00054  -0.00069   1.98388
   A12        1.91667  -0.00002  -0.00011   0.00002  -0.00009   1.91658
   A13        1.96922  -0.00000   0.00031  -0.00054  -0.00024   1.96899
   A14        1.90997  -0.00001  -0.00000   0.00025   0.00025   1.91022
   A15        1.88631   0.00002  -0.00104   0.00061  -0.00043   1.88588
   A16        2.11912  -0.00004  -0.00218   0.00023  -0.00198   2.11714
   A17        1.79140   0.00000   0.00119  -0.00037   0.00082   1.79222
   A18        1.92192   0.00000   0.00111  -0.00028   0.00084   1.92276
   A19        1.81112  -0.00001  -0.00003   0.00037   0.00036   1.81147
   A20        1.91066   0.00005  -0.00030   0.00056   0.00027   1.91093
   A21        1.89133  -0.00001   0.00050  -0.00067  -0.00018   1.89115
   A22        1.78760  -0.00001   0.00024   0.00002   0.00027   1.78787
   A23        1.95527   0.00002  -0.00097   0.00075  -0.00023   1.95504
   A24        1.94493   0.00002   0.00149  -0.00082   0.00067   1.94560
   A25        1.93383  -0.00003  -0.00133   0.00034  -0.00100   1.93283
   A26        1.97822  -0.00000  -0.00071   0.00044  -0.00028   1.97793
   A27        1.86593   0.00001   0.00117  -0.00065   0.00052   1.86645
   A28        1.93007  -0.00013  -0.00078   0.00014  -0.00063   1.92944
   A29        2.16550   0.00006   0.00040  -0.00008   0.00032   2.16582
   A30        2.18557   0.00007   0.00033   0.00002   0.00035   2.18592
   A31        1.93583   0.00012  -0.00001   0.00085   0.00086   1.93669
   A32        2.27037  -0.00012  -0.00134   0.00021  -0.00113   2.26924
   A33        2.07669  -0.00001   0.00132  -0.00107   0.00025   2.07694
   A34        1.99873   0.00002  -0.00015  -0.00000  -0.00017   1.99856
   A35        2.27026  -0.00011  -0.00323  -0.00075  -0.00402   2.26624
   A36        1.91933   0.00004   0.00058  -0.00076  -0.00020   1.91913
    D1       -2.72516  -0.00002  -0.00017   0.00066   0.00048  -2.72468
    D2       -0.57596  -0.00005  -0.00206   0.00104  -0.00102  -0.57698
    D3        1.48185  -0.00001   0.00024  -0.00010   0.00013   1.48199
    D4        0.40653   0.00002  -0.00201   0.00272   0.00071   0.40725
    D5        2.55573  -0.00001  -0.00390   0.00311  -0.00079   2.55494
    D6       -1.66964   0.00003  -0.00160   0.00197   0.00037  -1.66928
    D7        3.04662  -0.00002  -0.00332  -0.00095  -0.00426   3.04237
    D8        0.41177   0.00008   0.00347   0.00301   0.00646   0.41823
    D9       -0.08534  -0.00007  -0.00152  -0.00297  -0.00449  -0.08983
   D10       -2.72019   0.00004   0.00526   0.00100   0.00623  -2.71396
   D11       -0.55845  -0.00002   0.00440  -0.00163   0.00277  -0.55569
   D12       -2.69371  -0.00003   0.00338  -0.00080   0.00258  -2.69112
   D13        1.47361  -0.00001   0.00491  -0.00123   0.00368   1.47729
   D14       -2.65464   0.00003   0.00457  -0.00079   0.00378  -2.65086
   D15        1.49329   0.00002   0.00355   0.00004   0.00359   1.49688
   D16       -0.62258   0.00004   0.00508  -0.00039   0.00469  -0.61789
   D17        1.48862   0.00002   0.00371  -0.00049   0.00322   1.49184
   D18       -0.64663   0.00000   0.00269   0.00034   0.00303  -0.64360
   D19       -2.76250   0.00002   0.00422  -0.00009   0.00413  -2.75837
   D20        2.50820  -0.00003  -0.00513   0.00032  -0.00481   2.50340
   D21        0.50087   0.00000  -0.00486   0.00002  -0.00485   0.49602
   D22       -1.51002   0.00001  -0.00650   0.00109  -0.00542  -1.51543
   D23       -1.62943  -0.00004  -0.00444  -0.00051  -0.00494  -1.63436
   D24        2.64643  -0.00001  -0.00417  -0.00081  -0.00498   2.64145
   D25        0.63554   0.00000  -0.00581   0.00027  -0.00555   0.62999
   D26        0.47136  -0.00003  -0.00555   0.00008  -0.00547   0.46590
   D27       -1.53597   0.00001  -0.00528  -0.00022  -0.00551  -1.54148
   D28        2.73633   0.00001  -0.00693   0.00086  -0.00608   2.73025
   D29       -2.25298   0.00005  -0.00032   0.00204   0.00172  -2.25126
   D30       -0.17995   0.00001  -0.00221   0.00281   0.00060  -0.17936
   D31        1.90978   0.00004  -0.00035   0.00192   0.00156   1.91134
   D32       -0.25569   0.00002   0.00000   0.00198   0.00198  -0.25371
   D33        1.81733  -0.00001  -0.00189   0.00274   0.00086   1.81819
   D34       -2.37612   0.00002  -0.00003   0.00185   0.00182  -2.37430
   D35        1.76040   0.00003   0.00044   0.00163   0.00207   1.76247
   D36       -2.44976  -0.00001  -0.00145   0.00240   0.00095  -2.44881
   D37       -0.36003   0.00002   0.00040   0.00151   0.00191  -0.35812
   D38       -0.27147   0.00004   0.00410   0.00201   0.00612  -0.26536
   D39        2.46391  -0.00008  -0.00239  -0.00121  -0.00363   2.46029
   D40       -2.49199   0.00009   0.00601   0.00176   0.00780  -2.48420
   D41        0.24339  -0.00003  -0.00048  -0.00146  -0.00195   0.24144
   D42        1.76146   0.00004   0.00614   0.00124   0.00739   1.76885
   D43       -1.78634  -0.00008  -0.00035  -0.00199  -0.00235  -1.78869
   D44        0.20037  -0.00003   0.00046  -0.00216  -0.00171   0.19866
   D45       -3.00683  -0.00003  -0.00034  -0.00086  -0.00121  -3.00803
   D46       -1.88770  -0.00003   0.00209  -0.00321  -0.00113  -1.88883
   D47        1.18829  -0.00003   0.00128  -0.00191  -0.00062   1.18767
   D48        2.29782  -0.00001   0.00204  -0.00291  -0.00088   2.29694
   D49       -0.90937  -0.00001   0.00124  -0.00161  -0.00038  -0.90975
   D50       -0.05622  -0.00001  -0.00085   0.00137   0.00052  -0.05570
   D51        3.05817  -0.00002  -0.00100   0.00094  -0.00007   3.05810
   D52       -3.13130  -0.00001  -0.00004   0.00006   0.00002  -3.13128
   D53       -0.01690  -0.00002  -0.00019  -0.00038  -0.00058  -0.01748
   D54        2.52685  -0.00009  -0.00577  -0.00360  -0.00934   2.51751
   D55       -0.12566   0.00001   0.00087   0.00006   0.00093  -0.12473
   D56       -0.59095  -0.00007  -0.00556  -0.00324  -0.00879  -0.59975
   D57        3.03972   0.00003   0.00108   0.00042   0.00148   3.04120
         Item               Value     Threshold  Converged?
 Maximum Force            0.000287     0.000450     YES
 RMS     Force            0.000062     0.000300     YES
 Maximum Displacement     0.011689     0.001800     NO 
 RMS     Displacement     0.003147     0.001200     NO 
 Predicted change in Energy=-3.919469D-06
 Lowest energy point so far.  Saving SCF results.
 GradGradGradGradGradGradGradGradGradGradGradGradGradGradGradGradGradGrad

 Leave Link  103 at Tue Apr  9 11:54:54 2024, MaxMem=  7516192768 cpu:               0.6 elap:               0.0
 (Enter /public3/home/scg9909/software-scg9909/g16/l202.exe)
                          Input orientation:                          
 ---------------------------------------------------------------------
 Center     Atomic      Atomic             Coordinates (Angstroms)
 Number     Number       Type             X           Y           Z
 ---------------------------------------------------------------------
      1          8           0       -1.345160    2.531960   -0.379710
      2          6           0       -1.116115    1.336544   -0.338181
      3          6           0       -2.091677    0.191852   -0.025164
      4          6           0       -1.176309   -0.943992    0.479263
      5          6           0        0.122290   -0.717711   -0.313592
      6          6           0        1.510394   -0.967399    0.327145
      7          6           0        2.248673    0.329200    0.025604
      8          6           0        1.398943    1.259227   -0.428653
      9          7           0        0.103948    0.736008   -0.556818
     10          1           0       -2.841229    0.524904    0.695700
     11          1           0       -2.617668   -0.093847   -0.945678
     12          1           0       -1.594702   -1.943365    0.331368
     13          1           0       -0.977862   -0.813691    1.549802
     14          1           0        0.068401   -1.231728   -1.283814
     15          1           0        1.439879   -1.132444    1.413512
     16          1           0        1.995256   -1.851440   -0.098945
     17          1           0        3.302470    0.486277    0.217704
     18          1           0        1.570369    2.299746   -0.669543
 ---------------------------------------------------------------------
                    Distance matrix (angstroms):
                    1          2          3          4          5
     1  O    0.000000
     2  C    1.217870   0.000000
     3  C    2.481753   1.536236   0.000000
     4  C    3.584492   2.423361   1.543530   0.000000
     5  C    3.566251   2.398794   2.410839   1.538240   0.000000
     6  C    4.571580   3.556593   3.800382   2.691108   1.549103
     7  C    4.234627   3.531130   4.342820   3.682028   2.394281
     8  C    3.025285   2.517872   3.672400   3.508619   2.356134
     9  N    2.314460   1.377316   2.323690   2.352641   1.474040
    10  H    2.724520   2.168800   1.091969   2.230798   3.368265
    11  H    2.972282   2.160957   1.098015   2.197890   2.880297
    12  H    4.538330   3.381589   2.221092   1.093468   2.205960
    13  H    3.879601   2.864804   2.175366   1.096546   2.166052
    14  H    4.120790   2.982167   2.876928   2.177277   1.099294
    15  H    4.939630   3.961998   4.036761   2.784381   2.211545
    16  H    5.518279   4.461065   4.569848   3.349121   2.199867
    17  H    5.112942   4.533856   5.407633   4.708879   3.441716
    18  H    2.939088   2.873109   4.274228   4.402934   3.365811
                    6          7          8          9         10
     6  C    0.000000
     7  C    1.522220   0.000000
     8  C    2.354042   1.339156   0.000000
     9  N    2.379301   2.259326   1.402568   0.000000
    10  H    4.615130   5.137552   4.447748   3.207404   0.000000
    11  H    4.407274   4.980325   4.269812   2.871771   1.768320
    12  H    3.254865   4.475442   4.449285   3.294438   2.789071
    13  H    2.776677   3.746987   3.722966   2.830146   2.448155
    14  H    2.178164   2.984068   2.950678   2.098040   3.933215
    15  H    1.101093   2.171829   3.019161   3.026222   4.646498
    16  H    1.094611   2.198846   3.184422   3.237527   5.447023
    17  H    2.310127   1.082618   2.153750   3.300423   6.162387
    18  H    3.416316   2.196901   1.081709   2.146712   4.947338
                   11         12         13         14         15
    11  H    0.000000
    12  H    2.469417   0.000000
    13  H    3.071572   1.772353   0.000000
    14  H    2.936678   2.425108   3.049393   0.000000
    15  H    4.807094   3.322245   2.442468   3.027602   0.000000
    16  H    5.008509   3.616824   3.554535   2.345363   1.764348
    17  H    6.061191   5.467940   4.667509   3.957941   2.742163
    18  H    4.831687   5.387345   4.594830   3.886456   4.016973
                   16         17         18
    16  H    0.000000
    17  H    2.697035   0.000000
    18  H    4.211705   2.660084   0.000000
 Stoichiometry    C7H9NO
 Framework group  C1[X(C7H9NO)]
 Deg. of freedom    48
 Full point group                 C1      NOp   1
 RotChk:  IX=0 Diff= 3.92D-04
 Largest Abelian subgroup         C1      NOp   1
 Largest concise Abelian subgroup C1      NOp   1
                         Standard orientation:                         
 ---------------------------------------------------------------------
 Center     Atomic      Atomic             Coordinates (Angstroms)
 Number     Number       Type             X           Y           Z
 ---------------------------------------------------------------------
      1          8           0       -1.971915   -1.563924   -0.198078
      2          6           0       -1.334546   -0.550762    0.026578
      3          6           0       -1.823920    0.905251    0.002854
      4          6           0       -0.538757    1.721147   -0.252400
      5          6           0        0.547008    0.878903    0.438918
      6          6           0        1.969840    0.751347   -0.160248
      7          6           0        2.184779   -0.755532   -0.176639
      8          6           0        1.036404   -1.396899    0.074802
      9          7           0        0.003405   -0.488183    0.347465
     10          1           0       -2.598130    1.027999   -0.757363
     11          1           0       -2.269740    1.150406    0.975880
     12          1           0       -0.586494    2.745515    0.127157
     13          1           0       -0.335167    1.766777   -1.328914
     14          1           0        0.619568    1.152238    1.501213
     15          1           0        2.027160    1.164562   -1.179254
     16          1           0        2.708497    1.287999    0.443542
     17          1           0        3.125251   -1.231714   -0.423267
     18          1           0        0.815692   -2.455842    0.070185
 ---------------------------------------------------------------------
 Rotational constants (GHZ):           2.8756227           1.7074685           1.1365451
 Leave Link  202 at Tue Apr  9 11:54:54 2024, MaxMem=  7516192768 cpu:               0.1 elap:               0.0
 (Enter /public3/home/scg9909/software-scg9909/g16/l301.exe)
 Standard basis: 6-31G(d) (6D, 7F)
 Ernie: Thresh=  0.10000D-02 Tol=  0.10000D-05 Strict=F.
 There are   153 symmetry adapted cartesian basis functions of A   symmetry.
 There are   153 symmetry adapted basis functions of A   symmetry.
   153 basis functions,   288 primitive gaussians,   153 cartesian basis functions
    33 alpha electrons       33 beta electrons
       nuclear repulsion energy       448.4530555908 Hartrees.
 IExCor=  402 DFT=T Ex+Corr=B3LYP ExCW=0 ScaHFX=  0.200000
 ScaDFX=  0.800000  0.720000  1.000000  0.810000 ScalE2=  1.000000  1.000000
 IRadAn=      5 IRanWt=     -1 IRanGd=            0 ICorTp=0 IEmpDi=141
 NAtoms=   18 NActive=   18 NUniq=   18 SFac= 1.00D+00 NAtFMM=   60 NAOKFM=F Big=F
 Integral buffers will be    131072 words long.
 Raffenetti 2 integral format.
 Two-electron integral symmetry is turned on.
 R6Disp:  Grimme-D3(BJ) Dispersion energy=       -0.0312135340 Hartrees.
 Nuclear repulsion after empirical dispersion term =      448.4218420568 Hartrees.
 Leave Link  301 at Tue Apr  9 11:54:54 2024, MaxMem=  7516192768 cpu:               0.6 elap:               0.0
 (Enter /public3/home/scg9909/software-scg9909/g16/l302.exe)
 NPDir=0 NMtPBC=     1 NCelOv=     1 NCel=       1 NClECP=     1 NCelD=      1
         NCelK=      1 NCelE2=     1 NClLst=     1 CellRange=     0.0.
 One-electron integrals computed using PRISM.
 One-electron integral symmetry used in STVInt
 NBasis=   153 RedAO= T EigKep=  1.82D-03  NBF=   153
 NBsUse=   153 1.00D-06 EigRej= -1.00D+00 NBFU=   153
 Precomputing XC quadrature grid using
 IXCGrd= 4 IRadAn=           5 IRanWt=          -1 IRanGd=           0 AccXCQ= 0.00D+00.
 Generated NRdTot=       0 NPtTot=           0 NUsed=           0 NTot=          32
 NSgBfM=   153   153   153   153   153 MxSgAt=    18 MxSgA2=    18.
 Leave Link  302 at Tue Apr  9 11:54:54 2024, MaxMem=  7516192768 cpu:               2.7 elap:               0.1
 (Enter /public3/home/scg9909/software-scg9909/g16/l303.exe)
 DipDrv:  MaxL=1.
 Leave Link  303 at Tue Apr  9 11:54:55 2024, MaxMem=  7516192768 cpu:               0.3 elap:               0.0
 (Enter /public3/home/scg9909/software-scg9909/g16/l401.exe)
 Initial guess from the checkpoint file:  "/public3/home/scg9909/tmp/Gau-65552.chk"
 B after Tr=     0.000000   -0.000000   -0.000000
         Rot=    1.000000    0.000069    0.000004   -0.000154 Ang=   0.02 deg.
 Guess basis will be translated and rotated to current coordinates.
 JPrj=2 DoOrth=T DoCkMO=T.
 Leave Link  401 at Tue Apr  9 11:54:55 2024, MaxMem=  7516192768 cpu:               1.4 elap:               0.1
 (Enter /public3/home/scg9909/software-scg9909/g16/l502.exe)
 Integral symmetry usage will be decided dynamically.
 Closed shell SCF:
 Using DIIS extrapolation, IDIIS=  1040.
 NGot=  7516192768 LenX=  7516139403 LenY=  7516115553
 Requested convergence on RMS density matrix=1.00D-08 within 128 cycles.
 Requested convergence on MAX density matrix=1.00D-06.
 Requested convergence on             energy=1.00D-06.
 No special actions if energy rises.
 Fock matrices will be formed incrementally for  20 cycles.

 Cycle   1  Pass 1  IDiag  1:
 FoFJK:  IHMeth= 1 ICntrl=       0 DoSepK=F KAlg= 0 I1Cent=           0 FoldK=F
 IRaf= 970000000 NMat=       1 IRICut=       1 DoRegI=T DoRafI=F ISym2E= 0 IDoP0=0 IntGTp=1.
 FoFCou: FMM=F IPFlag=           0 FMFlag=      100000 FMFlg1=           0
         NFxFlg=           0 DoJE=F BraDBF=F KetDBF=F FulRan=T
         wScrn=  0.000000 ICntrl=         0 IOpCl=  0 I1Cent=           0 NGrid=           0
         NMat0=    1 NMatS0=      1 NMatT0=    0 NMatD0=    1 NMtDS0=    0 NMtDT0=    0
 Symmetry not used in FoFCou.
 E= -402.161403998769    
 DIIS: error= 1.98D-04 at cycle   1 NSaved=   1.
 NSaved= 1 IEnMin= 1 EnMin= -402.161403998769     IErMin= 1 ErrMin= 1.98D-04
 ErrMax= 1.98D-04  0.00D+00 EMaxC= 1.00D-01 BMatC= 1.76D-05 BMatP= 1.76D-05
 IDIUse=3 WtCom= 9.98D-01 WtEn= 1.98D-03
 Coeff-Com:  0.100D+01
 Coeff-En:   0.100D+01
 Coeff:      0.100D+01
 Gap=     1.658 Goal=   None    Shift=    0.000
 RMSDP=5.18D-05 MaxDP=8.56D-04              OVMax= 1.78D-03

 Cycle   2  Pass 1  IDiag  1:
 RMSU=  5.18D-05    CP:  1.00D+00
 E= -402.161440338853     Delta-E=       -0.000036340084 Rises=F Damp=F
 DIIS: error= 3.12D-05 at cycle   2 NSaved=   2.
 NSaved= 2 IEnMin= 2 EnMin= -402.161440338853     IErMin= 2 ErrMin= 3.12D-05
 ErrMax= 3.12D-05  0.00D+00 EMaxC= 1.00D-01 BMatC= 2.72D-07 BMatP= 1.76D-05
 IDIUse=1 WtCom= 1.00D+00 WtEn= 0.00D+00
 Coeff-Com: -0.785D-01 0.108D+01
 Coeff:     -0.785D-01 0.108D+01
 Gap=     0.210 Goal=   None    Shift=    0.000
 RMSDP=7.60D-06 MaxDP=1.08D-04 DE=-3.63D-05 OVMax= 2.67D-04

 Cycle   3  Pass 1  IDiag  1:
 RMSU=  6.61D-06    CP:  1.00D+00  1.07D+00
 E= -402.161440760686     Delta-E=       -0.000000421833 Rises=F Damp=F
 DIIS: error= 1.58D-05 at cycle   3 NSaved=   3.
 NSaved= 3 IEnMin= 3 EnMin= -402.161440760686     IErMin= 3 ErrMin= 1.58D-05
 ErrMax= 1.58D-05  0.00D+00 EMaxC= 1.00D-01 BMatC= 7.78D-08 BMatP= 2.72D-07
 IDIUse=1 WtCom= 1.00D+00 WtEn= 0.00D+00
 Coeff-Com: -0.341D-01 0.412D+00 0.622D+00
 Coeff:     -0.341D-01 0.412D+00 0.622D+00
 Gap=     0.210 Goal=   None    Shift=    0.000
 RMSDP=3.39D-06 MaxDP=7.19D-05 DE=-4.22D-07 OVMax= 1.99D-04

 Cycle   4  Pass 1  IDiag  1:
 RMSU=  2.36D-06    CP:  1.00D+00  1.08D+00  6.45D-01
 E= -402.161440817691     Delta-E=       -0.000000057005 Rises=F Damp=F
 DIIS: error= 1.11D-05 at cycle   4 NSaved=   4.
 NSaved= 4 IEnMin= 4 EnMin= -402.161440817691     IErMin= 4 ErrMin= 1.11D-05
 ErrMax= 1.11D-05  0.00D+00 EMaxC= 1.00D-01 BMatC= 2.60D-08 BMatP= 7.78D-08
 IDIUse=1 WtCom= 1.00D+00 WtEn= 0.00D+00
 Coeff-Com: -0.136D-01 0.157D+00 0.381D+00 0.476D+00
 Coeff:     -0.136D-01 0.157D+00 0.381D+00 0.476D+00
 Gap=     0.210 Goal=   None    Shift=    0.000
 RMSDP=1.32D-06 MaxDP=4.29D-05 DE=-5.70D-08 OVMax= 9.48D-05

 Cycle   5  Pass 1  IDiag  1:
 RMSU=  8.29D-07    CP:  1.00D+00  1.09D+00  7.25D-01  6.29D-01
 E= -402.161440842602     Delta-E=       -0.000000024911 Rises=F Damp=F
 DIIS: error= 2.38D-06 at cycle   5 NSaved=   5.
 NSaved= 5 IEnMin= 5 EnMin= -402.161440842602     IErMin= 5 ErrMin= 2.38D-06
 ErrMax= 2.38D-06  0.00D+00 EMaxC= 1.00D-01 BMatC= 1.78D-09 BMatP= 2.60D-08
 IDIUse=1 WtCom= 1.00D+00 WtEn= 0.00D+00
 Coeff-Com: -0.223D-02 0.227D-01 0.113D+00 0.246D+00 0.621D+00
 Coeff:     -0.223D-02 0.227D-01 0.113D+00 0.246D+00 0.621D+00
 Gap=     0.210 Goal=   None    Shift=    0.000
 RMSDP=3.30D-07 MaxDP=1.07D-05 DE=-2.49D-08 OVMax= 1.69D-05

 Cycle   6  Pass 1  IDiag  1:
 RMSU=  2.11D-07    CP:  1.00D+00  1.09D+00  7.38D-01  6.91D-01  7.72D-01
 E= -402.161440844209     Delta-E=       -0.000000001608 Rises=F Damp=F
 DIIS: error= 8.13D-07 at cycle   6 NSaved=   6.
 NSaved= 6 IEnMin= 6 EnMin= -402.161440844209     IErMin= 6 ErrMin= 8.13D-07
 ErrMax= 8.13D-07  0.00D+00 EMaxC= 1.00D-01 BMatC= 2.39D-10 BMatP= 1.78D-09
 IDIUse=1 WtCom= 1.00D+00 WtEn= 0.00D+00
 Coeff-Com:  0.672D-03-0.109D-01 0.532D-02 0.599D-01 0.323D+00 0.622D+00
 Coeff:      0.672D-03-0.109D-01 0.532D-02 0.599D-01 0.323D+00 0.622D+00
 Gap=     0.210 Goal=   None    Shift=    0.000
 RMSDP=1.18D-07 MaxDP=3.05D-06 DE=-1.61D-09 OVMax= 4.88D-06

 Cycle   7  Pass 1  IDiag  1:
 RMSU=  8.20D-08    CP:  1.00D+00  1.09D+00  7.43D-01  7.06D-01  8.03D-01
                    CP:  7.02D-01
 E= -402.161440844408     Delta-E=       -0.000000000199 Rises=F Damp=F
 DIIS: error= 4.49D-07 at cycle   7 NSaved=   7.
 NSaved= 7 IEnMin= 7 EnMin= -402.161440844408     IErMin= 7 ErrMin= 4.49D-07
 ErrMax= 4.49D-07  0.00D+00 EMaxC= 1.00D-01 BMatC= 3.51D-11 BMatP= 2.39D-10
 IDIUse=1 WtCom= 1.00D+00 WtEn= 0.00D+00
 Coeff-Com:  0.552D-03-0.802D-02-0.599D-02 0.134D-01 0.132D+00 0.355D+00
 Coeff-Com:  0.513D+00
 Coeff:      0.552D-03-0.802D-02-0.599D-02 0.134D-01 0.132D+00 0.355D+00
 Coeff:      0.513D+00
 Gap=     0.210 Goal=   None    Shift=    0.000
 RMSDP=4.77D-08 MaxDP=1.26D-06 DE=-1.99D-10 OVMax= 1.97D-06

 Cycle   8  Pass 1  IDiag  1:
 RMSU=  3.72D-08    CP:  1.00D+00  1.09D+00  7.43D-01  7.09D-01  8.18D-01
                    CP:  7.49D-01  7.06D-01
 E= -402.161440844434     Delta-E=       -0.000000000026 Rises=F Damp=F
 DIIS: error= 1.89D-07 at cycle   8 NSaved=   8.
 NSaved= 8 IEnMin= 8 EnMin= -402.161440844434     IErMin= 8 ErrMin= 1.89D-07
 ErrMax= 1.89D-07  0.00D+00 EMaxC= 1.00D-01 BMatC= 5.80D-12 BMatP= 3.51D-11
 IDIUse=1 WtCom= 1.00D+00 WtEn= 0.00D+00
 Coeff-Com:  0.243D-03-0.347D-02-0.453D-02-0.266D-03 0.382D-01 0.140D+00
 Coeff-Com:  0.328D+00 0.502D+00
 Coeff:      0.243D-03-0.347D-02-0.453D-02-0.266D-03 0.382D-01 0.140D+00
 Coeff:      0.328D+00 0.502D+00
 Gap=     0.210 Goal=   None    Shift=    0.000
 RMSDP=2.08D-08 MaxDP=5.79D-07 DE=-2.59D-11 OVMax= 9.33D-07

 Cycle   9  Pass 1  IDiag  1:
 RMSU=  1.56D-08    CP:  1.00D+00  1.09D+00  7.44D-01  7.09D-01  8.25D-01
                    CP:  7.59D-01  7.66D-01  7.04D-01
 E= -402.161440844439     Delta-E=       -0.000000000005 Rises=F Damp=F
 DIIS: error= 3.56D-08 at cycle   9 NSaved=   9.
 NSaved= 9 IEnMin= 9 EnMin= -402.161440844439     IErMin= 9 ErrMin= 3.56D-08
 ErrMax= 3.56D-08  0.00D+00 EMaxC= 1.00D-01 BMatC= 5.75D-13 BMatP= 5.80D-12
 IDIUse=1 WtCom= 1.00D+00 WtEn= 0.00D+00
 Coeff-Com:  0.216D-04-0.169D-03-0.118D-02-0.289D-02-0.696D-02 0.296D-02
 Coeff-Com:  0.719D-01 0.282D+00 0.655D+00
 Coeff:      0.216D-04-0.169D-03-0.118D-02-0.289D-02-0.696D-02 0.296D-02
 Coeff:      0.719D-01 0.282D+00 0.655D+00
 Gap=     0.210 Goal=   None    Shift=    0.000
 RMSDP=7.41D-09 MaxDP=2.05D-07 DE=-5.12D-12 OVMax= 3.59D-07

 SCF Done:  E(RB3LYP) =  -402.161440844     A.U. after    9 cycles
            NFock=  9  Conv=0.74D-08     -V/T= 2.0095
 KE= 3.983822057810D+02 PE=-1.831618415628D+03 EE= 5.826529269459D+02
 Leave Link  502 at Tue Apr  9 11:54:58 2024, MaxMem=  7516192768 cpu:             107.0 elap:               3.8
 (Enter /public3/home/scg9909/software-scg9909/g16/l701.exe)
 ... and contract with generalized density number  0.
 Compute integral first derivatives.
 R6Disp: Adding Grimme-D3(BJ) dispersion energy 1st derivatives to the gradient.
 Leave Link  701 at Tue Apr  9 11:54:59 2024, MaxMem=  7516192768 cpu:               2.1 elap:               0.1
 (Enter /public3/home/scg9909/software-scg9909/g16/l702.exe)
 L702 exits ... SP integral derivatives will be done elsewhere.
 Leave Link  702 at Tue Apr  9 11:54:59 2024, MaxMem=  7516192768 cpu:               0.2 elap:               0.0
 (Enter /public3/home/scg9909/software-scg9909/g16/l703.exe)
 Integral derivatives from FoFJK, PRISM(SPDF).
 Compute integral first derivatives, UseDBF=F ICtDFT=           0.
 Calling FoFJK, ICntrl=      2127 FMM=F ISym2X=0 I1Cent= 0 IOpClX= 0 NMat=1 NMatS=1 NMatT=0.
 FoFJK:  IHMeth= 1 ICntrl=    2127 DoSepK=F KAlg= 0 I1Cent=           0 FoldK=F
 IRaf=         0 NMat=       1 IRICut=       1 DoRegI=T DoRafI=F ISym2E= 0 IDoP0=0 IntGTp=1.
 FoFCou: FMM=F IPFlag=           0 FMFlag=      100000 FMFlg1=         800
         NFxFlg=           0 DoJE=F BraDBF=F KetDBF=F FulRan=T
         wScrn=  0.000000 ICntrl=      2127 IOpCl=  0 I1Cent=           0 NGrid=           0
         NMat0=    1 NMatS0=      1 NMatT0=    0 NMatD0=    1 NMtDS0=    0 NMtDT0=    0
 Symmetry not used in FoFCou.
 Leave Link  703 at Tue Apr  9 11:54:59 2024, MaxMem=  7516192768 cpu:              20.2 elap:               0.7
 (Enter /public3/home/scg9909/software-scg9909/g16/l716.exe)
 Dipole        = 9.54656715D-01 1.17778647D+00 1.07635791D-01
 ***** Axes restored to original set *****
 -------------------------------------------------------------------
 Center     Atomic                   Forces (Hartrees/Bohr)
 Number     Number              X              Y              Z
 -------------------------------------------------------------------
      1        8           0.000050644   -0.000094348   -0.000075450
      2        6          -0.000134340    0.000200719    0.000328219
      3        6           0.000083952   -0.000085399   -0.000117726
      4        6          -0.000047400   -0.000065972    0.000063641
      5        6           0.000006087   -0.000044552   -0.000124248
      6        6           0.000136127    0.000130051    0.000188788
      7        6          -0.000135857    0.000080933   -0.000078867
      8        6           0.000118358   -0.000094667    0.000169002
      9        7           0.000106031   -0.000002689   -0.000362572
     10        1          -0.000030944    0.000049685   -0.000021197
     11        1          -0.000049032   -0.000020505    0.000044640
     12        1           0.000008082    0.000021835   -0.000013779
     13        1           0.000004221    0.000032547   -0.000007365
     14        1          -0.000071757   -0.000027792    0.000066616
     15        1           0.000023205   -0.000095465   -0.000027891
     16        1          -0.000029380   -0.000011527   -0.000042776
     17        1          -0.000016538    0.000001389    0.000017068
     18        1          -0.000021461    0.000025758   -0.000006102
 -------------------------------------------------------------------
 Cartesian Forces:  Max     0.000362572 RMS     0.000102919
 Leave Link  716 at Tue Apr  9 11:54:59 2024, MaxMem=  7516192768 cpu:               0.2 elap:               0.0
 (Enter /public3/home/scg9909/software-scg9909/g16/l103.exe)

 GradGradGradGradGradGradGradGradGradGradGradGradGradGradGradGradGradGrad
 Berny optimization.
 Using GEDIIS/GDIIS optimizer.
 FormGI is forming the generalized inverse of G from B-inverse, IUseBI=4.
 Internal  Forces:  Max     0.000118646 RMS     0.000033307
 Search for a local minimum.
 Step number   7 out of a maximum of  108
 All quantities printed in internal units (Hartrees-Bohrs-Radians)
 RMS Force = .33307D-04 SwitMx=.10000D-02 MixMth= 2
 Mixed Optimization -- En-DIIS/RFO-DIIS
 Swapping is turned off.
 Update second derivatives using D2CorX and points    2    3    4    5    6
                                                      7
 DE= -4.93D-06 DEPred=-3.92D-06 R= 1.26D+00
 TightC=F SS=  1.41D+00  RLast= 2.99D-02 DXNew= 1.3044D+00 8.9811D-02
 Trust test= 1.26D+00 RLast= 2.99D-02 DXMaxT set to 7.76D-01
 ITU=  1  1  1  1  1  1  0
     Eigenvalues ---    0.00382   0.00577   0.00728   0.01410   0.01786
     Eigenvalues ---    0.02191   0.02577   0.03176   0.03992   0.04451
     Eigenvalues ---    0.04526   0.05042   0.05540   0.06029   0.06269
     Eigenvalues ---    0.06779   0.07336   0.07514   0.08086   0.08446
     Eigenvalues ---    0.08907   0.10828   0.12513   0.15760   0.15952
     Eigenvalues ---    0.19417   0.22168   0.22451   0.25372   0.26276
     Eigenvalues ---    0.28333   0.28800   0.29546   0.30476   0.33903
     Eigenvalues ---    0.34043   0.34274   0.34333   0.34356   0.34539
     Eigenvalues ---    0.34585   0.35767   0.35988   0.36634   0.44712
     Eigenvalues ---    0.47940   0.56698   0.96406
 En-DIIS/RFO-DIIS/Sim-DIIS IScMMF=       -3 using points:     7    6    5    4    3    2
 RFO step:  Lambda=-3.26388063D-06.
 NNeg= 0 NGDIIS= 6 SimSw=  2.50D-01 Rises=F DC= -4.93D-06 SmlDif=  1.00D-05
 NRisDI= 0 DoIntr=F SqrtH=F CThrHd= 10.0 CDAdj=  3.0
 RMS Error=  0.2039066093D-02 NUsed= 6 OKEnD=F EnDIS=F
 InvSVX:  RCond= 1.28D-06 Info=           0 Equed=N FErr=  7.20D-13 BErr=  9.17D-17
 DidBck=F Rises=F RFO-DIIS coefs:    2.29142   -1.35933   -0.22208    0.14514    0.21862
                  RFO-DIIS coefs:   -0.07378
 Iteration  1 RMS(Cart)=  0.00260566 RMS(Int)=  0.00001222
 Iteration  2 RMS(Cart)=  0.00000799 RMS(Int)=  0.00001053
 Iteration  3 RMS(Cart)=  0.00000000 RMS(Int)=  0.00001053
 ITry= 1 IFail=0 DXMaxC= 1.27D-02 DCOld= 1.00D+10 DXMaxT= 7.76D-01 DXLimC= 3.00D+00 Rises=F
 Variable       Old X    -DE/DX   Delta X   Delta X   Delta X     New X
                                 (Linear)    (Quad)   (Total)
    R1        2.30144  -0.00010  -0.00028   0.00006  -0.00022   2.30122
    R2        2.90307   0.00004  -0.00045   0.00015  -0.00032   2.90275
    R3        2.60275   0.00011   0.00121  -0.00014   0.00106   2.60381
    R4        2.91685   0.00003   0.00107  -0.00090   0.00018   2.91703
    R5        2.06352   0.00002  -0.00010   0.00018   0.00009   2.06361
    R6        2.07495  -0.00001  -0.00029   0.00013  -0.00017   2.07478
    R7        2.90685   0.00005   0.00031  -0.00001   0.00031   2.90716
    R8        2.06635  -0.00002  -0.00022   0.00020  -0.00003   2.06633
    R9        2.07217  -0.00000   0.00008  -0.00017  -0.00009   2.07208
   R10        2.92738   0.00010   0.00124  -0.00034   0.00090   2.92828
   R11        2.78553   0.00003  -0.00028   0.00060   0.00032   2.78586
   R12        2.07736  -0.00004  -0.00014  -0.00014  -0.00028   2.07709
   R13        2.87658  -0.00000   0.00079  -0.00088  -0.00010   2.87648
   R14        2.08076  -0.00001  -0.00002  -0.00010  -0.00012   2.08064
   R15        2.06851   0.00001  -0.00014   0.00016   0.00002   2.06854
   R16        2.53064  -0.00012  -0.00034   0.00000  -0.00033   2.53031
   R17        2.04585  -0.00001  -0.00020   0.00018  -0.00002   2.04583
   R18        2.65047   0.00001  -0.00036   0.00048   0.00012   2.65059
   R19        2.04413   0.00002   0.00001   0.00006   0.00007   2.04420
    A1        2.23815   0.00007   0.00048  -0.00019   0.00033   2.23848
    A2        2.20082  -0.00005  -0.00115   0.00045  -0.00066   2.20016
    A3        1.84417  -0.00002   0.00055  -0.00026   0.00033   1.84451
    A4        1.81142   0.00001  -0.00066   0.00038  -0.00028   1.81114
    A5        1.92106  -0.00005  -0.00102   0.00033  -0.00070   1.92036
    A6        1.90421   0.00004   0.00139  -0.00036   0.00102   1.90523
    A7        1.99959   0.00003  -0.00062   0.00048  -0.00015   1.99944
    A8        1.94613  -0.00000   0.00071  -0.00040   0.00031   1.94644
    A9        1.87965  -0.00003   0.00029  -0.00043  -0.00014   1.87952
   A10        1.79667  -0.00000   0.00052  -0.00038   0.00017   1.79684
   A11        1.98388   0.00000  -0.00079   0.00057  -0.00023   1.98365
   A12        1.91658  -0.00001  -0.00030   0.00010  -0.00020   1.91638
   A13        1.96899  -0.00000  -0.00020   0.00016  -0.00004   1.96894
   A14        1.91022  -0.00000   0.00078  -0.00072   0.00005   1.91027
   A15        1.88588   0.00001   0.00003   0.00020   0.00024   1.88611
   A16        2.11714   0.00001  -0.00124   0.00001  -0.00124   2.11591
   A17        1.79222   0.00001   0.00027   0.00025   0.00055   1.79277
   A18        1.92276  -0.00003   0.00004  -0.00054  -0.00050   1.92226
   A19        1.81147  -0.00003   0.00072  -0.00014   0.00057   1.81204
   A20        1.91093   0.00003   0.00028   0.00003   0.00032   1.91125
   A21        1.89115   0.00002   0.00010   0.00052   0.00062   1.89177
   A22        1.78787  -0.00003   0.00000   0.00028   0.00028   1.78814
   A23        1.95504   0.00003   0.00032   0.00013   0.00046   1.95550
   A24        1.94560  -0.00003  -0.00061  -0.00026  -0.00088   1.94472
   A25        1.93283   0.00002   0.00011   0.00070   0.00080   1.93364
   A26        1.97793   0.00004   0.00013  -0.00053  -0.00040   1.97753
   A27        1.86645  -0.00002   0.00006  -0.00028  -0.00022   1.86623
   A28        1.92944   0.00005  -0.00021   0.00042   0.00021   1.92964
   A29        2.16582  -0.00003   0.00016  -0.00032  -0.00016   2.16566
   A30        2.18592  -0.00002   0.00012  -0.00012  -0.00001   2.18591
   A31        1.93669   0.00001   0.00113  -0.00042   0.00071   1.93740
   A32        2.26924   0.00002  -0.00128   0.00084  -0.00045   2.26878
   A33        2.07694  -0.00003   0.00015  -0.00040  -0.00026   2.07668
   A34        1.99856  -0.00001  -0.00034  -0.00036  -0.00068   1.99788
   A35        2.26624  -0.00002  -0.00331  -0.00037  -0.00369   2.26255
   A36        1.91913   0.00001  -0.00007   0.00001  -0.00006   1.91907
    D1       -2.72468  -0.00001   0.00031   0.00117   0.00147  -2.72320
    D2       -0.57698   0.00000  -0.00138   0.00213   0.00075  -0.57622
    D3        1.48199  -0.00003  -0.00082   0.00160   0.00078   1.48277
    D4        0.40725   0.00004   0.00100   0.00118   0.00219   0.40943
    D5        2.55494   0.00006  -0.00069   0.00215   0.00146   2.55641
    D6       -1.66928   0.00002  -0.00012   0.00161   0.00149  -1.66779
    D7        3.04237   0.00001  -0.00169  -0.00104  -0.00274   3.03963
    D8        0.41823   0.00007   0.00708   0.00072   0.00781   0.42603
    D9       -0.08983  -0.00004  -0.00239  -0.00105  -0.00343  -0.09326
   D10       -2.71396   0.00002   0.00639   0.00071   0.00711  -2.70685
   D11       -0.55569  -0.00003   0.00044  -0.00073  -0.00029  -0.55597
   D12       -2.69112  -0.00003   0.00077  -0.00099  -0.00022  -2.69135
   D13        1.47729  -0.00004   0.00148  -0.00171  -0.00023   1.47706
   D14       -2.65086   0.00001   0.00250  -0.00165   0.00085  -2.65001
   D15        1.49688   0.00001   0.00283  -0.00191   0.00091   1.49780
   D16       -0.61789  -0.00000   0.00354  -0.00263   0.00091  -0.61698
   D17        1.49184   0.00003   0.00203  -0.00113   0.00090   1.49274
   D18       -0.64360   0.00003   0.00236  -0.00139   0.00097  -0.64263
   D19       -2.75837   0.00002   0.00307  -0.00211   0.00097  -2.75741
   D20        2.50340  -0.00002  -0.00103   0.00011  -0.00092   2.50248
   D21        0.49602   0.00001  -0.00151   0.00009  -0.00141   0.49461
   D22       -1.51543  -0.00000  -0.00178  -0.00041  -0.00219  -1.51762
   D23       -1.63436  -0.00002  -0.00175   0.00065  -0.00110  -1.63546
   D24        2.64145   0.00001  -0.00223   0.00063  -0.00159   2.63985
   D25        0.62999  -0.00000  -0.00250   0.00013  -0.00237   0.62762
   D26        0.46590  -0.00000  -0.00130   0.00050  -0.00080   0.46510
   D27       -1.54148   0.00002  -0.00177   0.00048  -0.00129  -1.54277
   D28        2.73025   0.00001  -0.00205  -0.00002  -0.00207   2.72818
   D29       -2.25126   0.00002   0.00465   0.00018   0.00482  -2.24644
   D30       -0.17936   0.00004   0.00493   0.00122   0.00615  -0.17321
   D31        1.91134   0.00001   0.00479   0.00078   0.00557   1.91691
   D32       -0.25371   0.00001   0.00489   0.00040   0.00529  -0.24842
   D33        1.81819   0.00004   0.00517   0.00144   0.00661   1.82480
   D34       -2.37430   0.00001   0.00503   0.00099   0.00603  -2.36826
   D35        1.76247   0.00003   0.00549   0.00094   0.00644   1.76891
   D36       -2.44881   0.00005   0.00577   0.00199   0.00776  -2.44105
   D37       -0.35812   0.00002   0.00563   0.00154   0.00718  -0.35093
   D38       -0.26536   0.00003   0.00252   0.00065   0.00317  -0.26219
   D39        2.46029  -0.00002  -0.00553  -0.00085  -0.00638   2.45391
   D40       -2.48420   0.00002   0.00346   0.00059   0.00405  -2.48015
   D41        0.24144  -0.00003  -0.00459  -0.00092  -0.00550   0.23594
   D42        1.76885  -0.00000   0.00273   0.00038   0.00313   1.77197
   D43       -1.78869  -0.00005  -0.00532  -0.00112  -0.00642  -1.79512
   D44        0.19866   0.00001  -0.00402   0.00028  -0.00373   0.19493
   D45       -3.00803   0.00000  -0.00302  -0.00010  -0.00311  -3.01114
   D46       -1.88883  -0.00001  -0.00445  -0.00035  -0.00480  -1.89362
   D47        1.18767  -0.00002  -0.00345  -0.00074  -0.00418   1.18349
   D48        2.29694  -0.00003  -0.00469  -0.00013  -0.00481   2.29213
   D49       -0.90975  -0.00004  -0.00369  -0.00051  -0.00419  -0.91394
   D50       -0.05570  -0.00003   0.00122  -0.00081   0.00042  -0.05528
   D51        3.05810  -0.00002  -0.00014   0.00028   0.00017   3.05827
   D52       -3.13128  -0.00002   0.00021  -0.00041  -0.00020  -3.13148
   D53       -0.01748  -0.00001  -0.00115   0.00068  -0.00045  -0.01793
   D54        2.51751  -0.00003  -0.00624  -0.00068  -0.00692   2.51059
   D55       -0.12473   0.00003   0.00224   0.00110   0.00334  -0.12139
   D56       -0.59975  -0.00004  -0.00506  -0.00166  -0.00670  -0.60644
   D57        3.04120   0.00002   0.00342   0.00012   0.00357   3.04476
         Item               Value     Threshold  Converged?
 Maximum Force            0.000119     0.000450     YES
 RMS     Force            0.000033     0.000300     YES
 Maximum Displacement     0.012674     0.001800     NO 
 RMS     Displacement     0.002608     0.001200     NO 
 Predicted change in Energy=-1.016460D-06
 Lowest energy point so far.  Saving SCF results.
 GradGradGradGradGradGradGradGradGradGradGradGradGradGradGradGradGradGrad

 Leave Link  103 at Tue Apr  9 11:54:59 2024, MaxMem=  7516192768 cpu:               0.6 elap:               0.0
 (Enter /public3/home/scg9909/software-scg9909/g16/l202.exe)
                          Input orientation:                          
 ---------------------------------------------------------------------
 Center     Atomic      Atomic             Coordinates (Angstroms)
 Number     Number       Type             X           Y           Z
 ---------------------------------------------------------------------
      1          8           0       -1.343188    2.531717   -0.380986
      2          6           0       -1.115531    1.336138   -0.339911
      3          6           0       -2.091318    0.192435   -0.024804
      4          6           0       -1.175663   -0.943314    0.479603
      5          6           0        0.122154   -0.718649   -0.315310
      6          6           0        1.510571   -0.967804    0.326101
      7          6           0        2.247419    0.330432    0.028386
      8          6           0        1.397981    1.259092   -0.428685
      9          7           0        0.103985    0.734602   -0.562352
     10          1           0       -2.839133    0.527075    0.697197
     11          1           0       -2.619546   -0.094061   -0.943682
     12          1           0       -1.594862   -1.942560    0.333245
     13          1           0       -0.975822   -0.811779    1.549681
     14          1           0        0.067094   -1.235724   -1.283673
     15          1           0        1.439842   -1.136889    1.411768
     16          1           0        1.996680   -1.849812   -0.102806
     17          1           0        3.300234    0.489164    0.224411
     18          1           0        1.569003    2.300037   -0.668183
 ---------------------------------------------------------------------
                    Distance matrix (angstroms):
                    1          2          3          4          5
     1  O    0.000000
     2  C    1.217754   0.000000
     3  C    2.481693   1.536069   0.000000
     4  C    3.583924   2.423039   1.543625   0.000000
     5  C    3.566009   2.398879   2.411209   1.538405   0.000000
     6  C    4.570619   3.556421   3.800381   2.690727   1.549577
     7  C    4.231512   3.529379   4.341257   3.680151   2.394880
     8  C    3.022558   2.516258   3.670978   3.507024   2.356278
     9  N    2.314482   1.377877   2.324276   2.353417   1.474212
    10  H    2.723769   2.168174   1.092015   2.230812   3.368415
    11  H    2.973285   2.161497   1.097926   2.198128   2.881299
    12  H    4.537909   3.381236   2.221007   1.093454   2.206065
    13  H    3.878324   2.864197   2.175266   1.096497   2.166199
    14  H    4.122784   2.983917   2.878043   2.176945   1.099146
    15  H    4.941446   3.964110   4.037318   2.783391   2.212244
    16  H    5.516330   4.460084   4.570404   3.350328   2.199667
    17  H    5.108805   4.531534   5.405459   4.706460   3.442427
    18  H    2.935475   2.871165   4.272455   4.401128   3.366060
                    6          7          8          9         10
     6  C    0.000000
     7  C    1.522169   0.000000
     8  C    2.354027   1.338980   0.000000
     9  N    2.380340   2.259786   1.402633   0.000000
    10  H    4.614358   5.134100   4.444838   3.208033   0.000000
    11  H    4.408361   4.981211   4.270453   2.872233   1.768195
    12  H    3.254829   4.474657   4.448395   3.294749   2.789223
    13  H    2.775543   3.742762   3.719862   2.831600   2.447690
    14  H    2.178710   2.988003   2.954042   2.098535   3.934140
    15  H    1.101029   2.172316   3.021546   3.030535   4.646398
    16  H    1.094624   2.198534   3.182754   3.236151   5.447448
    17  H    2.309977   1.082608   2.153576   3.300794   6.157661
    18  H    3.416255   2.196542   1.081746   2.146640   4.943614
                   11         12         13         14         15
    11  H    0.000000
    12  H    2.469305   0.000000
    13  H    3.071451   1.772454   0.000000
    14  H    2.938881   2.424075   3.048819   0.000000
    15  H    4.807730   3.319901   2.441341   3.026484   0.000000
    16  H    5.009918   3.619104   3.555839   2.344110   1.764160
    17  H    6.062045   5.466908   4.661914   3.962669   2.741336
    18  H    4.832344   5.386328   4.591127   3.890522   4.019370
                   16         17         18
    16  H    0.000000
    17  H    2.697617   0.000000
    18  H    4.209965   2.659538   0.000000
 Stoichiometry    C7H9NO
 Framework group  C1[X(C7H9NO)]
 Deg. of freedom    48
 Full point group                 C1      NOp   1
 RotChk:  IX=0 Diff= 9.48D-04
 Largest Abelian subgroup         C1      NOp   1
 Largest concise Abelian subgroup C1      NOp   1
                         Standard orientation:                         
 ---------------------------------------------------------------------
 Center     Atomic      Atomic             Coordinates (Angstroms)
 Number     Number       Type             X           Y           Z
 ---------------------------------------------------------------------
      1          8           0       -1.971058   -1.563422   -0.198198
      2          6           0       -1.334442   -0.550086    0.027177
      3          6           0       -1.823395    0.905850    0.001031
      4          6           0       -0.537439    1.720807   -0.253803
      5          6           0        0.547320    0.879230    0.440268
      6          6           0        1.970423    0.750398   -0.159206
      7          6           0        2.182810   -0.756743   -0.179586
      8          6           0        1.034563   -1.396922    0.074517
      9          7           0        0.003050   -0.488015    0.352455
     10          1           0       -2.596148    1.027233   -0.760950
     11          1           0       -2.271107    1.153149    0.972545
     12          1           0       -0.585413    2.745713    0.124227
     13          1           0       -0.332624    1.764596   -1.330111
     14          1           0        0.619780    1.156127    1.501494
     15          1           0        2.029506    1.167167   -1.176594
     16          1           0        2.709468    1.283714    0.447084
     17          1           0        3.121824   -1.233764   -0.430072
     18          1           0        0.812794   -2.455674    0.068385
 ---------------------------------------------------------------------
 Rotational constants (GHZ):           2.8745199           1.7083229           1.1371887
 Leave Link  202 at Tue Apr  9 11:54:59 2024, MaxMem=  7516192768 cpu:               0.1 elap:               0.0
 (Enter /public3/home/scg9909/software-scg9909/g16/l301.exe)
 Standard basis: 6-31G(d) (6D, 7F)
 Ernie: Thresh=  0.10000D-02 Tol=  0.10000D-05 Strict=F.
 There are   153 symmetry adapted cartesian basis functions of A   symmetry.
 There are   153 symmetry adapted basis functions of A   symmetry.
   153 basis functions,   288 primitive gaussians,   153 cartesian basis functions
    33 alpha electrons       33 beta electrons
       nuclear repulsion energy       448.4623838741 Hartrees.
 IExCor=  402 DFT=T Ex+Corr=B3LYP ExCW=0 ScaHFX=  0.200000
 ScaDFX=  0.800000  0.720000  1.000000  0.810000 ScalE2=  1.000000  1.000000
 IRadAn=      5 IRanWt=     -1 IRanGd=            0 ICorTp=0 IEmpDi=141
 NAtoms=   18 NActive=   18 NUniq=   18 SFac= 1.00D+00 NAtFMM=   60 NAOKFM=F Big=F
 Integral buffers will be    131072 words long.
 Raffenetti 2 integral format.
 Two-electron integral symmetry is turned on.
 R6Disp:  Grimme-D3(BJ) Dispersion energy=       -0.0312164227 Hartrees.
 Nuclear repulsion after empirical dispersion term =      448.4311674514 Hartrees.
 Leave Link  301 at Tue Apr  9 11:54:59 2024, MaxMem=  7516192768 cpu:               0.6 elap:               0.0
 (Enter /public3/home/scg9909/software-scg9909/g16/l302.exe)
 NPDir=0 NMtPBC=     1 NCelOv=     1 NCel=       1 NClECP=     1 NCelD=      1
         NCelK=      1 NCelE2=     1 NClLst=     1 CellRange=     0.0.
 One-electron integrals computed using PRISM.
 One-electron integral symmetry used in STVInt
 NBasis=   153 RedAO= T EigKep=  1.83D-03  NBF=   153
 NBsUse=   153 1.00D-06 EigRej= -1.00D+00 NBFU=   153
 Precomputing XC quadrature grid using
 IXCGrd= 4 IRadAn=           5 IRanWt=          -1 IRanGd=           0 AccXCQ= 0.00D+00.
 Generated NRdTot=       0 NPtTot=           0 NUsed=           0 NTot=          32
 NSgBfM=   153   153   153   153   153 MxSgAt=    18 MxSgA2=    18.
 Leave Link  302 at Tue Apr  9 11:55:00 2024, MaxMem=  7516192768 cpu:               2.6 elap:               0.1
 (Enter /public3/home/scg9909/software-scg9909/g16/l303.exe)
 DipDrv:  MaxL=1.
 Leave Link  303 at Tue Apr  9 11:55:00 2024, MaxMem=  7516192768 cpu:               0.3 elap:               0.0
 (Enter /public3/home/scg9909/software-scg9909/g16/l401.exe)
 Initial guess from the checkpoint file:  "/public3/home/scg9909/tmp/Gau-65552.chk"
 B after Tr=    -0.000000   -0.000000    0.000000
         Rot=    1.000000    0.000108    0.000056    0.000233 Ang=   0.03 deg.
 Guess basis will be translated and rotated to current coordinates.
 JPrj=2 DoOrth=T DoCkMO=T.
 Leave Link  401 at Tue Apr  9 11:55:00 2024, MaxMem=  7516192768 cpu:               1.4 elap:               0.1
 (Enter /public3/home/scg9909/software-scg9909/g16/l502.exe)
 Integral symmetry usage will be decided dynamically.
 Closed shell SCF:
 Using DIIS extrapolation, IDIIS=  1040.
 NGot=  7516192768 LenX=  7516139403 LenY=  7516115553
 Requested convergence on RMS density matrix=1.00D-08 within 128 cycles.
 Requested convergence on MAX density matrix=1.00D-06.
 Requested convergence on             energy=1.00D-06.
 No special actions if energy rises.
 Fock matrices will be formed incrementally for  20 cycles.

 Cycle   1  Pass 1  IDiag  1:
 FoFJK:  IHMeth= 1 ICntrl=       0 DoSepK=F KAlg= 0 I1Cent=           0 FoldK=F
 IRaf= 970000000 NMat=       1 IRICut=       1 DoRegI=T DoRafI=F ISym2E= 0 IDoP0=0 IntGTp=1.
 FoFCou: FMM=F IPFlag=           0 FMFlag=      100000 FMFlg1=           0
         NFxFlg=           0 DoJE=F BraDBF=F KetDBF=F FulRan=T
         wScrn=  0.000000 ICntrl=         0 IOpCl=  0 I1Cent=           0 NGrid=           0
         NMat0=    1 NMatS0=      1 NMatT0=    0 NMatD0=    1 NMtDS0=    0 NMtDT0=    0
 Symmetry not used in FoFCou.
 E= -402.161417154966    
 DIIS: error= 1.76D-04 at cycle   1 NSaved=   1.
 NSaved= 1 IEnMin= 1 EnMin= -402.161417154966     IErMin= 1 ErrMin= 1.76D-04
 ErrMax= 1.76D-04  0.00D+00 EMaxC= 1.00D-01 BMatC= 1.27D-05 BMatP= 1.27D-05
 IDIUse=3 WtCom= 9.98D-01 WtEn= 1.76D-03
 Coeff-Com:  0.100D+01
 Coeff-En:   0.100D+01
 Coeff:      0.100D+01
 Gap=     1.657 Goal=   None    Shift=    0.000
 RMSDP=4.61D-05 MaxDP=7.85D-04              OVMax= 1.59D-03

 Cycle   2  Pass 1  IDiag  1:
 RMSU=  4.61D-05    CP:  1.00D+00
 E= -402.161443831554     Delta-E=       -0.000026676588 Rises=F Damp=F
 DIIS: error= 2.60D-05 at cycle   2 NSaved=   2.
 NSaved= 2 IEnMin= 2 EnMin= -402.161443831554     IErMin= 2 ErrMin= 2.60D-05
 ErrMax= 2.60D-05  0.00D+00 EMaxC= 1.00D-01 BMatC= 2.26D-07 BMatP= 1.27D-05
 IDIUse=1 WtCom= 1.00D+00 WtEn= 0.00D+00
 Coeff-Com: -0.745D-01 0.107D+01
 Coeff:     -0.745D-01 0.107D+01
 Gap=     0.210 Goal=   None    Shift=    0.000
 RMSDP=7.35D-06 MaxDP=1.07D-04 DE=-2.67D-05 OVMax= 3.55D-04

 Cycle   3  Pass 1  IDiag  1:
 RMSU=  6.42D-06    CP:  1.00D+00  1.08D+00
 E= -402.161444006927     Delta-E=       -0.000000175373 Rises=F Damp=F
 DIIS: error= 2.82D-05 at cycle   3 NSaved=   3.
 NSaved= 3 IEnMin= 3 EnMin= -402.161444006927     IErMin= 2 ErrMin= 2.60D-05
 ErrMax= 2.82D-05  0.00D+00 EMaxC= 1.00D-01 BMatC= 2.40D-07 BMatP= 2.26D-07
 IDIUse=1 WtCom= 1.00D+00 WtEn= 0.00D+00
 Coeff-Com: -0.504D-01 0.602D+00 0.448D+00
 Coeff:     -0.504D-01 0.602D+00 0.448D+00
 Gap=     0.210 Goal=   None    Shift=    0.000
 RMSDP=4.27D-06 MaxDP=1.16D-04 DE=-1.75D-07 OVMax= 2.41D-04

 Cycle   4  Pass 1  IDiag  1:
 RMSU=  2.93D-06    CP:  1.00D+00  1.09D+00  5.25D-01
 E= -402.161444188374     Delta-E=       -0.000000181447 Rises=F Damp=F
 DIIS: error= 1.36D-05 at cycle   4 NSaved=   4.
 NSaved= 4 IEnMin= 4 EnMin= -402.161444188374     IErMin= 4 ErrMin= 1.36D-05
 ErrMax= 1.36D-05  0.00D+00 EMaxC= 1.00D-01 BMatC= 4.46D-08 BMatP= 2.26D-07
 IDIUse=1 WtCom= 1.00D+00 WtEn= 0.00D+00
 Coeff-Com: -0.156D-01 0.181D+00 0.303D+00 0.532D+00
 Coeff:     -0.156D-01 0.181D+00 0.303D+00 0.532D+00
 Gap=     0.210 Goal=   None    Shift=    0.000
 RMSDP=1.51D-06 MaxDP=4.19D-05 DE=-1.81D-07 OVMax= 8.10D-05

 Cycle   5  Pass 1  IDiag  1:
 RMSU=  9.33D-07    CP:  1.00D+00  1.09D+00  6.01D-01  6.43D-01
 E= -402.161444226020     Delta-E=       -0.000000037646 Rises=F Damp=F
 DIIS: error= 4.78D-06 at cycle   5 NSaved=   5.
 NSaved= 5 IEnMin= 5 EnMin= -402.161444226020     IErMin= 5 ErrMin= 4.78D-06
 ErrMax= 4.78D-06  0.00D+00 EMaxC= 1.00D-01 BMatC= 2.17D-09 BMatP= 4.46D-08
 IDIUse=1 WtCom= 1.00D+00 WtEn= 0.00D+00
 Coeff-Com: -0.484D-02 0.523D-01 0.126D+00 0.276D+00 0.550D+00
 Coeff:     -0.484D-02 0.523D-01 0.126D+00 0.276D+00 0.550D+00
 Gap=     0.210 Goal=   None    Shift=    0.000
 RMSDP=4.65D-07 MaxDP=1.31D-05 DE=-3.76D-08 OVMax= 2.51D-05

 Cycle   6  Pass 1  IDiag  1:
 RMSU=  3.08D-07    CP:  1.00D+00  1.09D+00  6.28D-01  6.92D-01  7.15D-01
 E= -402.161444227722     Delta-E=       -0.000000001702 Rises=F Damp=F
 DIIS: error= 1.53D-06 at cycle   6 NSaved=   6.
 NSaved= 6 IEnMin= 6 EnMin= -402.161444227722     IErMin= 6 ErrMin= 1.53D-06
 ErrMax= 1.53D-06  0.00D+00 EMaxC= 1.00D-01 BMatC= 3.66D-10 BMatP= 2.17D-09
 IDIUse=1 WtCom= 1.00D+00 WtEn= 0.00D+00
 Coeff-Com:  0.946D-05-0.312D-02 0.193D-01 0.701D-01 0.312D+00 0.602D+00
 Coeff:      0.946D-05-0.312D-02 0.193D-01 0.701D-01 0.312D+00 0.602D+00
 Gap=     0.210 Goal=   None    Shift=    0.000
 RMSDP=1.76D-07 MaxDP=5.53D-06 DE=-1.70D-09 OVMax= 1.19D-05

 Cycle   7  Pass 1  IDiag  1:
 RMSU=  1.00D-07    CP:  1.00D+00  1.09D+00  6.29D-01  7.02D-01  7.86D-01
                    CP:  5.95D-01
 E= -402.161444228029     Delta-E=       -0.000000000307 Rises=F Damp=F
 DIIS: error= 3.96D-07 at cycle   7 NSaved=   7.
 NSaved= 7 IEnMin= 7 EnMin= -402.161444228029     IErMin= 7 ErrMin= 3.96D-07
 ErrMax= 3.96D-07  0.00D+00 EMaxC= 1.00D-01 BMatC= 7.19D-11 BMatP= 3.66D-10
 IDIUse=1 WtCom= 1.00D+00 WtEn= 0.00D+00
 Coeff-Com:  0.548D-03-0.829D-02-0.449D-02 0.800D-02 0.115D+00 0.374D+00
 Coeff-Com:  0.515D+00
 Coeff:      0.548D-03-0.829D-02-0.449D-02 0.800D-02 0.115D+00 0.374D+00
 Coeff:      0.515D+00
 Gap=     0.210 Goal=   None    Shift=    0.000
 RMSDP=5.70D-08 MaxDP=1.99D-06 DE=-3.07D-10 OVMax= 2.93D-06

 Cycle   8  Pass 1  IDiag  1:
 RMSU=  3.39D-08    CP:  1.00D+00  1.09D+00  6.30D-01  7.06D-01  7.96D-01
                    CP:  6.68D-01  6.38D-01
 E= -402.161444228095     Delta-E=       -0.000000000066 Rises=F Damp=F
 DIIS: error= 8.25D-08 at cycle   8 NSaved=   8.
 NSaved= 8 IEnMin= 8 EnMin= -402.161444228095     IErMin= 8 ErrMin= 8.25D-08
 ErrMax= 8.25D-08  0.00D+00 EMaxC= 1.00D-01 BMatC= 2.23D-12 BMatP= 7.19D-11
 IDIUse=1 WtCom= 1.00D+00 WtEn= 0.00D+00
 Coeff-Com:  0.213D-03-0.306D-02-0.358D-02-0.236D-02 0.191D-01 0.106D+00
 Coeff-Com:  0.214D+00 0.669D+00
 Coeff:      0.213D-03-0.306D-02-0.358D-02-0.236D-02 0.191D-01 0.106D+00
 Coeff:      0.214D+00 0.669D+00
 Gap=     0.210 Goal=   None    Shift=    0.000
 RMSDP=1.51D-08 MaxDP=3.43D-07 DE=-6.57D-11 OVMax= 6.99D-07

 Cycle   9  Pass 1  IDiag  1:
 RMSU=  1.13D-08    CP:  1.00D+00  1.09D+00  6.30D-01  7.07D-01  7.99D-01
                    CP:  6.89D-01  6.75D-01  9.16D-01
 E= -402.161444228099     Delta-E=       -0.000000000004 Rises=F Damp=F
 DIIS: error= 2.33D-08 at cycle   9 NSaved=   9.
 NSaved= 9 IEnMin= 9 EnMin= -402.161444228099     IErMin= 9 ErrMin= 2.33D-08
 ErrMax= 2.33D-08  0.00D+00 EMaxC= 1.00D-01 BMatC= 1.61D-13 BMatP= 2.23D-12
 IDIUse=1 WtCom= 1.00D+00 WtEn= 0.00D+00
 Coeff-Com:  0.216D-04-0.173D-03-0.849D-03-0.194D-02-0.610D-02-0.182D-02
 Coeff-Com:  0.248D-01 0.241D+00 0.745D+00
 Coeff:      0.216D-04-0.173D-03-0.849D-03-0.194D-02-0.610D-02-0.182D-02
 Coeff:      0.248D-01 0.241D+00 0.745D+00
 Gap=     0.210 Goal=   None    Shift=    0.000
 RMSDP=4.94D-09 MaxDP=7.75D-08 DE=-4.09D-12 OVMax= 2.54D-07

 SCF Done:  E(RB3LYP) =  -402.161444228     A.U. after    9 cycles
            NFock=  9  Conv=0.49D-08     -V/T= 2.0095
 KE= 3.983819591956D+02 PE=-1.831637925321D+03 EE= 5.826633544463D+02
 Leave Link  502 at Tue Apr  9 11:55:03 2024, MaxMem=  7516192768 cpu:             102.1 elap:               3.7
 (Enter /public3/home/scg9909/software-scg9909/g16/l701.exe)
 ... and contract with generalized density number  0.
 Compute integral first derivatives.
 R6Disp: Adding Grimme-D3(BJ) dispersion energy 1st derivatives to the gradient.
 Leave Link  701 at Tue Apr  9 11:55:03 2024, MaxMem=  7516192768 cpu:               2.0 elap:               0.1
 (Enter /public3/home/scg9909/software-scg9909/g16/l702.exe)
 L702 exits ... SP integral derivatives will be done elsewhere.
 Leave Link  702 at Tue Apr  9 11:55:03 2024, MaxMem=  7516192768 cpu:               0.2 elap:               0.0
 (Enter /public3/home/scg9909/software-scg9909/g16/l703.exe)
 Integral derivatives from FoFJK, PRISM(SPDF).
 Compute integral first derivatives, UseDBF=F ICtDFT=           0.
 Calling FoFJK, ICntrl=      2127 FMM=F ISym2X=0 I1Cent= 0 IOpClX= 0 NMat=1 NMatS=1 NMatT=0.
 FoFJK:  IHMeth= 1 ICntrl=    2127 DoSepK=F KAlg= 0 I1Cent=           0 FoldK=F
 IRaf=         0 NMat=       1 IRICut=       1 DoRegI=T DoRafI=F ISym2E= 0 IDoP0=0 IntGTp=1.
 FoFCou: FMM=F IPFlag=           0 FMFlag=      100000 FMFlg1=         800
         NFxFlg=           0 DoJE=F BraDBF=F KetDBF=F FulRan=T
         wScrn=  0.000000 ICntrl=      2127 IOpCl=  0 I1Cent=           0 NGrid=           0
         NMat0=    1 NMatS0=      1 NMatT0=    0 NMatD0=    1 NMtDS0=    0 NMtDT0=    0
 Symmetry not used in FoFCou.
 Leave Link  703 at Tue Apr  9 11:55:04 2024, MaxMem=  7516192768 cpu:              19.5 elap:               0.7
 (Enter /public3/home/scg9909/software-scg9909/g16/l716.exe)
 Dipole        = 9.51372046D-01 1.17828278D+00 1.05309957D-01
 ***** Axes restored to original set *****
 -------------------------------------------------------------------
 Center     Atomic                   Forces (Hartrees/Bohr)
 Number     Number              X              Y              Z
 -------------------------------------------------------------------
      1        8          -0.000002844   -0.000043407   -0.000003816
      2        6           0.000010574    0.000040578    0.000052211
      3        6           0.000063836   -0.000064298    0.000079100
      4        6          -0.000089840    0.000053976   -0.000022477
      5        6           0.000065471   -0.000129118   -0.000006092
      6        6           0.000055273    0.000157325    0.000027418
      7        6          -0.000130253   -0.000057894   -0.000004296
      8        6           0.000211407    0.000026087    0.000074241
      9        7          -0.000091584    0.000042085   -0.000136284
     10        1          -0.000035711    0.000012022   -0.000033050
     11        1          -0.000015931   -0.000006864   -0.000021492
     12        1           0.000025648    0.000008380    0.000007435
     13        1           0.000008383    0.000015907    0.000021607
     14        1          -0.000044505    0.000017863    0.000004167
     15        1           0.000010016   -0.000056074   -0.000011953
     16        1           0.000006579   -0.000021916   -0.000022205
     17        1          -0.000005747    0.000003798    0.000018127
     18        1          -0.000040771    0.000001546   -0.000022641
 -------------------------------------------------------------------
 Cartesian Forces:  Max     0.000211407 RMS     0.000060243
 Leave Link  716 at Tue Apr  9 11:55:04 2024, MaxMem=  7516192768 cpu:               0.2 elap:               0.0
 (Enter /public3/home/scg9909/software-scg9909/g16/l103.exe)

 GradGradGradGradGradGradGradGradGradGradGradGradGradGradGradGradGradGrad
 Berny optimization.
 Using GEDIIS/GDIIS optimizer.
 FormGI is forming the generalized inverse of G from B-inverse, IUseBI=4.
 Internal  Forces:  Max     0.000097827 RMS     0.000020897
 Search for a local minimum.
 Step number   8 out of a maximum of  108
 All quantities printed in internal units (Hartrees-Bohrs-Radians)
 RMS Force = .20897D-04 SwitMx=.10000D-02 MixMth= 2
 Mixed Optimization -- En-DIIS/RFO-DIIS
 Swapping is turned off.
 Update second derivatives using D2CorX and points    2    3    4    5    6
                                                      7    8
 DE= -3.38D-06 DEPred=-1.02D-06 R= 3.33D+00
 TightC=F SS=  1.41D+00  RLast= 3.03D-02 DXNew= 1.3044D+00 9.1030D-02
 Trust test= 3.33D+00 RLast= 3.03D-02 DXMaxT set to 7.76D-01
 ITU=  1  1  1  1  1  1  1  0
     Eigenvalues ---    0.00257   0.00467   0.00688   0.01410   0.01780
     Eigenvalues ---    0.02200   0.02607   0.03190   0.04071   0.04360
     Eigenvalues ---    0.04506   0.05107   0.05464   0.06075   0.06130
     Eigenvalues ---    0.06801   0.07217   0.07503   0.08100   0.08440
     Eigenvalues ---    0.08814   0.10548   0.12425   0.15949   0.15993
     Eigenvalues ---    0.19479   0.22226   0.22507   0.25298   0.26999
     Eigenvalues ---    0.28345   0.29239   0.30044   0.30683   0.33858
     Eigenvalues ---    0.34076   0.34278   0.34336   0.34466   0.34537
     Eigenvalues ---    0.34588   0.35770   0.35958   0.36504   0.45202
     Eigenvalues ---    0.48209   0.56118   0.96070
 En-DIIS/RFO-DIIS/Sim-DIIS IScMMF=       -3 using points:     8    7    6    5    4    3    2
 RFO step:  Lambda=-1.90327066D-06.
 NNeg= 0 NGDIIS= 7 SimSw=  2.50D-01 Rises=F DC= -3.38D-06 SmlDif=  1.00D-05
 NRisDI= 0 DoIntr=F SqrtH=F CThrHd= 10.0 CDAdj=  3.0
 RMS Error=  0.2380907337D-02 NUsed= 7 OKEnD=F EnDIS=F
 InvSVX:  RCond= 2.44D-07 Info=           0 Equed=N FErr=  3.58D-12 BErr=  4.20D-17
 DidBck=F Rises=F RFO-DIIS coefs:    1.99286   -0.90832   -0.44919    0.43689   -0.04194
                  RFO-DIIS coefs:   -0.04388    0.01358
 Iteration  1 RMS(Cart)=  0.00294129 RMS(Int)=  0.00000721
 Iteration  2 RMS(Cart)=  0.00000676 RMS(Int)=  0.00000493
 Iteration  3 RMS(Cart)=  0.00000000 RMS(Int)=  0.00000493
 ITry= 1 IFail=0 DXMaxC= 1.24D-02 DCOld= 1.00D+10 DXMaxT= 7.76D-01 DXLimC= 3.00D+00 Rises=F
 Variable       Old X    -DE/DX   Delta X   Delta X   Delta X     New X
                                 (Linear)    (Quad)   (Total)
    R1        2.30122  -0.00004  -0.00022   0.00005  -0.00017   2.30105
    R2        2.90275   0.00002   0.00001  -0.00010  -0.00009   2.90266
    R3        2.60381   0.00000   0.00065  -0.00006   0.00059   2.60440
    R4        2.91703  -0.00004  -0.00037  -0.00003  -0.00039   2.91663
    R5        2.06361   0.00001   0.00028  -0.00020   0.00008   2.06369
    R6        2.07478   0.00003  -0.00010   0.00017   0.00007   2.07485
    R7        2.90716   0.00003   0.00042  -0.00006   0.00036   2.90752
    R8        2.06633  -0.00002  -0.00014   0.00006  -0.00008   2.06625
    R9        2.07208   0.00002  -0.00009   0.00016   0.00007   2.07215
   R10        2.92828   0.00001   0.00111  -0.00061   0.00050   2.92877
   R11        2.78586   0.00004   0.00056   0.00008   0.00063   2.78648
   R12        2.07709  -0.00001  -0.00038   0.00020  -0.00018   2.07691
   R13        2.87648  -0.00007  -0.00069   0.00011  -0.00058   2.87590
   R14        2.08064  -0.00000  -0.00015   0.00006  -0.00008   2.08056
   R15        2.06854   0.00003   0.00006   0.00013   0.00018   2.06872
   R16        2.53031  -0.00004  -0.00071   0.00044  -0.00026   2.53005
   R17        2.04583  -0.00000   0.00003  -0.00002   0.00001   2.04584
   R18        2.65059   0.00010   0.00029   0.00018   0.00047   2.65106
   R19        2.04420  -0.00000   0.00007  -0.00005   0.00003   2.04423
    A1        2.23848  -0.00001   0.00047  -0.00038   0.00009   2.23856
    A2        2.20016   0.00001  -0.00044   0.00022  -0.00023   2.19993
    A3        1.84451   0.00001   0.00001   0.00015   0.00015   1.84465
    A4        1.81114   0.00000  -0.00036  -0.00010  -0.00047   1.81068
    A5        1.92036  -0.00001  -0.00085   0.00074  -0.00011   1.92025
    A6        1.90523  -0.00000   0.00122  -0.00094   0.00029   1.90552
    A7        1.99944   0.00002   0.00079  -0.00017   0.00062   2.00006
    A8        1.94644   0.00000   0.00027  -0.00023   0.00004   1.94649
    A9        1.87952  -0.00002  -0.00100   0.00063  -0.00037   1.87915
   A10        1.79684   0.00001  -0.00020  -0.00003  -0.00023   1.79661
   A11        1.98365   0.00001  -0.00012   0.00030   0.00018   1.98384
   A12        1.91638  -0.00000  -0.00022   0.00021  -0.00001   1.91637
   A13        1.96894  -0.00002  -0.00012  -0.00006  -0.00018   1.96876
   A14        1.91027   0.00000  -0.00018   0.00019   0.00001   1.91028
   A15        1.88611   0.00000   0.00077  -0.00055   0.00021   1.88633
   A16        2.11591   0.00002  -0.00008  -0.00049  -0.00056   2.11535
   A17        1.79277  -0.00001  -0.00004  -0.00004  -0.00007   1.79269
   A18        1.92226  -0.00001  -0.00115   0.00072  -0.00043   1.92183
   A19        1.81204  -0.00001   0.00053  -0.00002   0.00050   1.81254
   A20        1.91125   0.00001   0.00072  -0.00016   0.00055   1.91181
   A21        1.89177  -0.00000   0.00012  -0.00003   0.00009   1.89186
   A22        1.78814   0.00001   0.00034   0.00016   0.00048   1.78863
   A23        1.95550   0.00000   0.00101  -0.00068   0.00033   1.95583
   A24        1.94472  -0.00001  -0.00137   0.00060  -0.00077   1.94395
   A25        1.93364   0.00001   0.00120  -0.00022   0.00098   1.93462
   A26        1.97753   0.00000  -0.00034  -0.00008  -0.00042   1.97711
   A27        1.86623  -0.00001  -0.00074   0.00020  -0.00054   1.86568
   A28        1.92964   0.00005   0.00037   0.00019   0.00056   1.93020
   A29        2.16566  -0.00003  -0.00029  -0.00004  -0.00033   2.16533
   A30        2.18591  -0.00002  -0.00003  -0.00013  -0.00015   2.18576
   A31        1.93740  -0.00003   0.00090  -0.00058   0.00031   1.93770
   A32        2.26878   0.00006   0.00009   0.00020   0.00030   2.26908
   A33        2.07668  -0.00003  -0.00101   0.00039  -0.00061   2.07607
   A34        1.99788  -0.00001  -0.00058  -0.00017  -0.00074   1.99714
   A35        2.26255   0.00002  -0.00197  -0.00023  -0.00219   2.26036
   A36        1.91907  -0.00002  -0.00041   0.00035  -0.00006   1.91901
    D1       -2.72320   0.00000   0.00198   0.00062   0.00260  -2.72060
    D2       -0.57622   0.00002   0.00225   0.00075   0.00300  -0.57322
    D3        1.48277  -0.00000   0.00128   0.00139   0.00266   1.48543
    D4        0.40943   0.00001   0.00256  -0.00005   0.00251   0.41194
    D5        2.55641   0.00003   0.00283   0.00008   0.00291   2.55932
    D6       -1.66779   0.00001   0.00186   0.00072   0.00257  -1.66521
    D7        3.03963   0.00001  -0.00160  -0.00032  -0.00192   3.03771
    D8        0.42603   0.00003   0.00536  -0.00031   0.00506   0.43109
    D9       -0.09326  -0.00000  -0.00217   0.00033  -0.00184  -0.09510
   D10       -2.70685   0.00002   0.00479   0.00034   0.00514  -2.70171
   D11       -0.55597  -0.00001  -0.00198  -0.00022  -0.00220  -0.55817
   D12       -2.69135   0.00000  -0.00163  -0.00028  -0.00192  -2.69327
   D13        1.47706  -0.00000  -0.00238   0.00007  -0.00231   1.47475
   D14       -2.65001  -0.00001  -0.00113  -0.00096  -0.00210  -2.65211
   D15        1.49780  -0.00000  -0.00078  -0.00103  -0.00182   1.49598
   D16       -0.61698  -0.00001  -0.00153  -0.00068  -0.00221  -0.61919
   D17        1.49274  -0.00001  -0.00062  -0.00149  -0.00211   1.49064
   D18       -0.64263   0.00000  -0.00027  -0.00156  -0.00183  -0.64446
   D19       -2.75741  -0.00000  -0.00102  -0.00120  -0.00222  -2.75963
   D20        2.50248  -0.00000   0.00143   0.00011   0.00153   2.50402
   D21        0.49461   0.00000   0.00082   0.00042   0.00125   0.49586
   D22       -1.51762   0.00002   0.00119   0.00017   0.00136  -1.51626
   D23       -1.63546  -0.00000   0.00109   0.00042   0.00150  -1.63396
   D24        2.63985   0.00001   0.00048   0.00073   0.00122   2.64107
   D25        0.62762   0.00002   0.00085   0.00048   0.00133   0.62895
   D26        0.46510  -0.00001   0.00186  -0.00020   0.00166   0.46676
   D27       -1.54277   0.00000   0.00125   0.00012   0.00137  -1.54140
   D28        2.72818   0.00002   0.00162  -0.00013   0.00149   2.72967
   D29       -2.24644   0.00002   0.00513   0.00070   0.00583  -2.24061
   D30       -0.17321   0.00003   0.00722   0.00021   0.00742  -0.16579
   D31        1.91691   0.00001   0.00602   0.00040   0.00642   1.92333
   D32       -0.24842   0.00001   0.00545   0.00037   0.00582  -0.24261
   D33        1.82480   0.00002   0.00754  -0.00012   0.00741   1.83221
   D34       -2.36826   0.00000   0.00633   0.00007   0.00641  -2.36186
   D35        1.76891   0.00001   0.00617   0.00025   0.00642   1.77533
   D36       -2.44105   0.00002   0.00826  -0.00024   0.00802  -2.43304
   D37       -0.35093   0.00000   0.00706  -0.00004   0.00701  -0.34392
   D38       -0.26219   0.00001   0.00094  -0.00048   0.00046  -0.26173
   D39        2.45391  -0.00000  -0.00516  -0.00064  -0.00578   2.44812
   D40       -2.48015  -0.00000   0.00081   0.00010   0.00089  -2.47926
   D41        0.23594  -0.00001  -0.00530  -0.00006  -0.00535   0.23059
   D42        1.77197  -0.00001  -0.00033   0.00031  -0.00003   1.77195
   D43       -1.79512  -0.00002  -0.00643   0.00015  -0.00627  -1.80139
   D44        0.19493  -0.00000  -0.00428  -0.00052  -0.00480   0.19013
   D45       -3.01114  -0.00000  -0.00328  -0.00020  -0.00348  -3.01463
   D46       -1.89362  -0.00001  -0.00621   0.00030  -0.00592  -1.89954
   D47        1.18349  -0.00001  -0.00521   0.00061  -0.00460   1.17889
   D48        2.29213  -0.00001  -0.00589   0.00026  -0.00563   2.28650
   D49       -0.91394  -0.00001  -0.00489   0.00057  -0.00431  -0.91826
   D50       -0.05528   0.00000   0.00117   0.00052   0.00170  -0.05359
   D51        3.05827   0.00000   0.00063   0.00065   0.00127   3.05953
   D52       -3.13148   0.00000   0.00017   0.00020   0.00037  -3.13111
   D53       -0.01793   0.00000  -0.00038   0.00032  -0.00006  -0.01799
   D54        2.51059  -0.00002  -0.00403  -0.00038  -0.00442   2.50617
   D55       -0.12139   0.00000   0.00270  -0.00026   0.00244  -0.11895
   D56       -0.60644  -0.00002  -0.00356  -0.00049  -0.00406  -0.61050
   D57        3.04476   0.00000   0.00317  -0.00036   0.00280   3.04757
         Item               Value     Threshold  Converged?
 Maximum Force            0.000098     0.000450     YES
 RMS     Force            0.000021     0.000300     YES
 Maximum Displacement     0.012427     0.001800     NO 
 RMS     Displacement     0.002941     0.001200     NO 
 Predicted change in Energy=-7.135789D-07
 Lowest energy point so far.  Saving SCF results.
 GradGradGradGradGradGradGradGradGradGradGradGradGradGradGradGradGradGrad

 Leave Link  103 at Tue Apr  9 11:55:04 2024, MaxMem=  7516192768 cpu:               0.6 elap:               0.0
 (Enter /public3/home/scg9909/software-scg9909/g16/l202.exe)
                          Input orientation:                          
 ---------------------------------------------------------------------
 Center     Atomic      Atomic             Coordinates (Angstroms)
 Number     Number       Type             X           Y           Z
 ---------------------------------------------------------------------
      1          8           0       -1.342485    2.531406   -0.382332
      2          6           0       -1.115336    1.335811   -0.341624
      3          6           0       -2.091050    0.192501   -0.025100
      4          6           0       -1.174981   -0.941714    0.481369
      5          6           0        0.121803   -0.719266   -0.316216
      6          6           0        1.510981   -0.968721    0.324066
      7          6           0        2.246279    0.331154    0.031275
      8          6           0        1.397484    1.259174   -0.427886
      9          7           0        0.104002    0.733877   -0.565893
     10          1           0       -2.839448    0.528426    0.695760
     11          1           0       -2.618970   -0.095834   -0.943624
     12          1           0       -1.594204   -1.941393    0.338374
     13          1           0       -0.973585   -0.806959    1.550792
     14          1           0        0.064338   -1.238093   -1.283394
     15          1           0        1.440965   -1.143465    1.408839
     16          1           0        1.997929   -1.848298   -0.109107
     17          1           0        3.298268    0.490976    0.230828
     18          1           0        1.567910    2.300521   -0.666127
 ---------------------------------------------------------------------
                    Distance matrix (angstroms):
                    1          2          3          4          5
     1  O    0.000000
     2  C    1.217663   0.000000
     3  C    2.481621   1.536022   0.000000
     4  C    3.582820   2.422394   1.543417   0.000000
     5  C    3.565864   2.398854   2.410972   1.538595   0.000000
     6  C    4.570794   3.556902   3.800655   2.690700   1.549840
     7  C    4.229824   3.528292   4.339910   3.678015   2.395314
     8  C    3.021272   2.515468   3.670136   3.505457   2.356705
     9  N    2.314548   1.378189   2.324606   2.353754   1.474544
    10  H    2.723070   2.168086   1.092056   2.231081   3.368952
    11  H    2.974366   2.161695   1.097962   2.198003   2.879955
    12  H    4.537479   3.381091   2.220917   1.093414   2.206074
    13  H    3.875273   2.862306   2.175106   1.096533   2.166399
    14  H    4.123129   2.983881   2.876734   2.176728   1.099053
    15  H    4.945763   3.968073   4.039321   2.782819   2.212679
    16  H    5.514964   4.459264   4.570740   3.352300   2.199422
    17  H    5.106458   4.530050   5.403641   4.703757   3.442946
    18  H    2.933300   2.869804   4.271142   4.399123   3.366419
                    6          7          8          9         10
     6  C    0.000000
     7  C    1.521862   0.000000
     8  C    2.354108   1.338843   0.000000
     9  N    2.381272   2.260121   1.402883   0.000000
    10  H    4.615825   5.132745   4.443891   3.209030   0.000000
    11  H    4.407432   4.980300   4.270121   2.871528   1.768019
    12  H    3.253993   4.473040   4.447581   3.295249   2.788972
    13  H    2.775624   3.737881   3.715648   2.831205   2.448628
    14  H    2.179281   2.991948   2.957282   2.098820   3.933144
    15  H    1.100986   2.172720   3.024586   3.035037   4.650338
    16  H    1.094721   2.198044   3.180964   3.234693   5.449481
    17  H    2.309503   1.082611   2.153372   3.301076   6.155414
    18  H    3.416382   2.196580   1.081762   2.146497   4.941645
                   11         12         13         14         15
    11  H    0.000000
    12  H    2.469767   0.000000
    13  H    3.071661   1.772588   0.000000
    14  H    2.936042   2.423948   3.048897   0.000000
    15  H    4.807773   3.315846   2.442015   3.025256   0.000000
    16  H    5.008323   3.621094   3.559430   2.343090   1.763848
    17  H    6.061137   5.464821   4.655714   3.967474   2.740198
    18  H    4.832130   5.385334   4.585887   3.894039   4.022765
                   16         17         18
    16  H    0.000000
    17  H    2.697896   0.000000
    18  H    4.208074   2.659534   0.000000
 Stoichiometry    C7H9NO
 Framework group  C1[X(C7H9NO)]
 Deg. of freedom    48
 Full point group                 C1      NOp   1
 RotChk:  IX=0 Diff= 1.09D-03
 Largest Abelian subgroup         C1      NOp   1
 Largest concise Abelian subgroup C1      NOp   1
                         Standard orientation:                         
 ---------------------------------------------------------------------
 Center     Atomic      Atomic             Coordinates (Angstroms)
 Number     Number       Type             X           Y           Z
 ---------------------------------------------------------------------
      1          8           0       -1.971429   -1.562251   -0.197940
      2          6           0       -1.334673   -0.549246    0.028038
      3          6           0       -1.822589    0.906958    0.000289
      4          6           0       -0.536014    1.719937   -0.256470
      5          6           0        0.547588    0.879389    0.441069
      6          6           0        1.971546    0.749332   -0.156788
      7          6           0        2.181165   -0.757809   -0.182258
      8          6           0        1.033090   -1.397303    0.073619
      9          7           0        0.002618   -0.488086    0.355632
     10          1           0       -2.596074    1.027684   -0.761112
     11          1           0       -2.269490    1.156186    0.971724
     12          1           0       -0.583064    2.746008    0.118389
     13          1           0       -0.330538    1.759982   -1.332835
     14          1           0        0.618336    1.158926    1.501621
     15          1           0        2.033865    1.170766   -1.172012
     16          1           0        2.710427    1.278681    0.453342
     17          1           0        3.118990   -1.235399   -0.436107
     18          1           0        0.809964   -2.455776    0.066092
 ---------------------------------------------------------------------
 Rotational constants (GHZ):           2.8745584           1.7085689           1.1376150
 Leave Link  202 at Tue Apr  9 11:55:04 2024, MaxMem=  7516192768 cpu:               0.1 elap:               0.0
 (Enter /public3/home/scg9909/software-scg9909/g16/l301.exe)
 Standard basis: 6-31G(d) (6D, 7F)
 Ernie: Thresh=  0.10000D-02 Tol=  0.10000D-05 Strict=F.
 There are   153 symmetry adapted cartesian basis functions of A   symmetry.
 There are   153 symmetry adapted basis functions of A   symmetry.
   153 basis functions,   288 primitive gaussians,   153 cartesian basis functions
    33 alpha electrons       33 beta electrons
       nuclear repulsion energy       448.4696365016 Hartrees.
 IExCor=  402 DFT=T Ex+Corr=B3LYP ExCW=0 ScaHFX=  0.200000
 ScaDFX=  0.800000  0.720000  1.000000  0.810000 ScalE2=  1.000000  1.000000
 IRadAn=      5 IRanWt=     -1 IRanGd=            0 ICorTp=0 IEmpDi=141
 NAtoms=   18 NActive=   18 NUniq=   18 SFac= 1.00D+00 NAtFMM=   60 NAOKFM=F Big=F
 Integral buffers will be    131072 words long.
 Raffenetti 2 integral format.
 Two-electron integral symmetry is turned on.
 R6Disp:  Grimme-D3(BJ) Dispersion energy=       -0.0312192948 Hartrees.
 Nuclear repulsion after empirical dispersion term =      448.4384172068 Hartrees.
 Leave Link  301 at Tue Apr  9 11:55:04 2024, MaxMem=  7516192768 cpu:               0.6 elap:               0.0
 (Enter /public3/home/scg9909/software-scg9909/g16/l302.exe)
 NPDir=0 NMtPBC=     1 NCelOv=     1 NCel=       1 NClECP=     1 NCelD=      1
         NCelK=      1 NCelE2=     1 NClLst=     1 CellRange=     0.0.
 One-electron integrals computed using PRISM.
 One-electron integral symmetry used in STVInt
 NBasis=   153 RedAO= T EigKep=  1.83D-03  NBF=   153
 NBsUse=   153 1.00D-06 EigRej= -1.00D+00 NBFU=   153
 Precomputing XC quadrature grid using
 IXCGrd= 4 IRadAn=           5 IRanWt=          -1 IRanGd=           0 AccXCQ= 0.00D+00.
 Generated NRdTot=       0 NPtTot=           0 NUsed=           0 NTot=          32
 NSgBfM=   153   153   153   153   153 MxSgAt=    18 MxSgA2=    18.
 Leave Link  302 at Tue Apr  9 11:55:04 2024, MaxMem=  7516192768 cpu:               2.5 elap:               0.1
 (Enter /public3/home/scg9909/software-scg9909/g16/l303.exe)
 DipDrv:  MaxL=1.
 Leave Link  303 at Tue Apr  9 11:55:04 2024, MaxMem=  7516192768 cpu:               0.3 elap:               0.0
 (Enter /public3/home/scg9909/software-scg9909/g16/l401.exe)
 Initial guess from the checkpoint file:  "/public3/home/scg9909/tmp/Gau-65552.chk"
 B after Tr=    -0.000000   -0.000000   -0.000000
         Rot=    1.000000    0.000087    0.000052    0.000315 Ang=   0.04 deg.
 Guess basis will be translated and rotated to current coordinates.
 JPrj=2 DoOrth=T DoCkMO=T.
 Leave Link  401 at Tue Apr  9 11:55:05 2024, MaxMem=  7516192768 cpu:               1.4 elap:               0.1
 (Enter /public3/home/scg9909/software-scg9909/g16/l502.exe)
 Integral symmetry usage will be decided dynamically.
 Closed shell SCF:
 Using DIIS extrapolation, IDIIS=  1040.
 NGot=  7516192768 LenX=  7516139403 LenY=  7516115553
 Requested convergence on RMS density matrix=1.00D-08 within 128 cycles.
 Requested convergence on MAX density matrix=1.00D-06.
 Requested convergence on             energy=1.00D-06.
 No special actions if energy rises.
 Fock matrices will be formed incrementally for  20 cycles.

 Cycle   1  Pass 1  IDiag  1:
 FoFJK:  IHMeth= 1 ICntrl=       0 DoSepK=F KAlg= 0 I1Cent=           0 FoldK=F
 IRaf= 970000000 NMat=       1 IRICut=       1 DoRegI=T DoRafI=F ISym2E= 0 IDoP0=0 IntGTp=1.
 FoFCou: FMM=F IPFlag=           0 FMFlag=      100000 FMFlg1=           0
         NFxFlg=           0 DoJE=F BraDBF=F KetDBF=F FulRan=T
         wScrn=  0.000000 ICntrl=         0 IOpCl=  0 I1Cent=           0 NGrid=           0
         NMat0=    1 NMatS0=      1 NMatT0=    0 NMatD0=    1 NMtDS0=    0 NMtDT0=    0
 Symmetry not used in FoFCou.
 E= -402.161423918371    
 DIIS: error= 1.42D-04 at cycle   1 NSaved=   1.
 NSaved= 1 IEnMin= 1 EnMin= -402.161423918371     IErMin= 1 ErrMin= 1.42D-04
 ErrMax= 1.42D-04  0.00D+00 EMaxC= 1.00D-01 BMatC= 1.01D-05 BMatP= 1.01D-05
 IDIUse=3 WtCom= 9.99D-01 WtEn= 1.42D-03
 Coeff-Com:  0.100D+01
 Coeff-En:   0.100D+01
 Coeff:      0.100D+01
 Gap=     1.656 Goal=   None    Shift=    0.000
 RMSDP=3.85D-05 MaxDP=5.81D-04              OVMax= 1.21D-03

 Cycle   2  Pass 1  IDiag  1:
 RMSU=  3.85D-05    CP:  1.00D+00
 E= -402.161445357041     Delta-E=       -0.000021438670 Rises=F Damp=F
 DIIS: error= 2.06D-05 at cycle   2 NSaved=   2.
 NSaved= 2 IEnMin= 2 EnMin= -402.161445357041     IErMin= 2 ErrMin= 2.06D-05
 ErrMax= 2.06D-05  0.00D+00 EMaxC= 1.00D-01 BMatC= 1.56D-07 BMatP= 1.01D-05
 IDIUse=1 WtCom= 1.00D+00 WtEn= 0.00D+00
 Coeff-Com: -0.778D-01 0.108D+01
 Coeff:     -0.778D-01 0.108D+01
 Gap=     0.211 Goal=   None    Shift=    0.000
 RMSDP=6.15D-06 MaxDP=1.16D-04 DE=-2.14D-05 OVMax= 3.10D-04

 Cycle   3  Pass 1  IDiag  1:
 RMSU=  4.92D-06    CP:  1.00D+00  1.10D+00
 E= -402.161445488794     Delta-E=       -0.000000131753 Rises=F Damp=F
 DIIS: error= 2.57D-05 at cycle   3 NSaved=   3.
 NSaved= 3 IEnMin= 3 EnMin= -402.161445488794     IErMin= 2 ErrMin= 2.06D-05
 ErrMax= 2.57D-05  0.00D+00 EMaxC= 1.00D-01 BMatC= 1.79D-07 BMatP= 1.56D-07
 IDIUse=1 WtCom= 1.00D+00 WtEn= 0.00D+00
 Coeff-Com: -0.529D-01 0.629D+00 0.424D+00
 Coeff:     -0.529D-01 0.629D+00 0.424D+00
 Gap=     0.211 Goal=   None    Shift=    0.000
 RMSDP=3.43D-06 MaxDP=9.77D-05 DE=-1.32D-07 OVMax= 2.12D-04

 Cycle   4  Pass 1  IDiag  1:
 RMSU=  2.43D-06    CP:  1.00D+00  1.10D+00  5.14D-01
 E= -402.161445631346     Delta-E=       -0.000000142553 Rises=F Damp=F
 DIIS: error= 9.12D-06 at cycle   4 NSaved=   4.
 NSaved= 4 IEnMin= 4 EnMin= -402.161445631346     IErMin= 4 ErrMin= 9.12D-06
 ErrMax= 9.12D-06  0.00D+00 EMaxC= 1.00D-01 BMatC= 2.29D-08 BMatP= 1.56D-07
 IDIUse=1 WtCom= 1.00D+00 WtEn= 0.00D+00
 Coeff-Com: -0.141D-01 0.159D+00 0.271D+00 0.584D+00
 Coeff:     -0.141D-01 0.159D+00 0.271D+00 0.584D+00
 Gap=     0.211 Goal=   None    Shift=    0.000
 RMSDP=1.13D-06 MaxDP=3.10D-05 DE=-1.43D-07 OVMax= 5.87D-05

 Cycle   5  Pass 1  IDiag  1:
 RMSU=  6.65D-07    CP:  1.00D+00  1.11D+00  6.20D-01  7.05D-01
 E= -402.161445650734     Delta-E=       -0.000000019387 Rises=F Damp=F
 DIIS: error= 4.02D-06 at cycle   5 NSaved=   5.
 NSaved= 5 IEnMin= 5 EnMin= -402.161445650734     IErMin= 5 ErrMin= 4.02D-06
 ErrMax= 4.02D-06  0.00D+00 EMaxC= 1.00D-01 BMatC= 1.63D-09 BMatP= 2.29D-08
 IDIUse=1 WtCom= 1.00D+00 WtEn= 0.00D+00
 Coeff-Com: -0.478D-02 0.501D-01 0.124D+00 0.325D+00 0.505D+00
 Coeff:     -0.478D-02 0.501D-01 0.124D+00 0.325D+00 0.505D+00
 Gap=     0.211 Goal=   None    Shift=    0.000
 RMSDP=3.61D-07 MaxDP=1.16D-05 DE=-1.94D-08 OVMax= 1.73D-05

 Cycle   6  Pass 1  IDiag  1:
 RMSU=  2.37D-07    CP:  1.00D+00  1.11D+00  6.39D-01  7.44D-01  6.48D-01
 E= -402.161445651930     Delta-E=       -0.000000001196 Rises=F Damp=F
 DIIS: error= 1.28D-06 at cycle   6 NSaved=   6.
 NSaved= 6 IEnMin= 6 EnMin= -402.161445651930     IErMin= 6 ErrMin= 1.28D-06
 ErrMax= 1.28D-06  0.00D+00 EMaxC= 1.00D-01 BMatC= 2.53D-10 BMatP= 1.63D-09
 IDIUse=1 WtCom= 1.00D+00 WtEn= 0.00D+00
 Coeff-Com:  0.331D-04-0.381D-02 0.171D-01 0.758D-01 0.299D+00 0.611D+00
 Coeff:      0.331D-04-0.381D-02 0.171D-01 0.758D-01 0.299D+00 0.611D+00
 Gap=     0.211 Goal=   None    Shift=    0.000
 RMSDP=1.25D-07 MaxDP=3.67D-06 DE=-1.20D-09 OVMax= 7.83D-06

 Cycle   7  Pass 1  IDiag  1:
 RMSU=  7.05D-08    CP:  1.00D+00  1.11D+00  6.39D-01  7.56D-01  7.30D-01
                    CP:  6.50D-01
 E= -402.161445652132     Delta-E=       -0.000000000203 Rises=F Damp=F
 DIIS: error= 2.41D-07 at cycle   7 NSaved=   7.
 NSaved= 7 IEnMin= 7 EnMin= -402.161445652132     IErMin= 7 ErrMin= 2.41D-07
 ErrMax= 2.41D-07  0.00D+00 EMaxC= 1.00D-01 BMatC= 3.41D-11 BMatP= 2.53D-10
 IDIUse=1 WtCom= 1.00D+00 WtEn= 0.00D+00
 Coeff-Com:  0.481D-03-0.730D-02-0.314D-02 0.110D-01 0.122D+00 0.362D+00
 Coeff-Com:  0.514D+00
 Coeff:      0.481D-03-0.730D-02-0.314D-02 0.110D-01 0.122D+00 0.362D+00
 Coeff:      0.514D+00
 Gap=     0.211 Goal=   None    Shift=    0.000
 RMSDP=3.83D-08 MaxDP=1.12D-06 DE=-2.03D-10 OVMax= 1.64D-06

 Cycle   8  Pass 1  IDiag  1:
 RMSU=  2.35D-08    CP:  1.00D+00  1.11D+00  6.41D-01  7.58D-01  7.36D-01
                    CP:  6.93D-01  6.20D-01
 E= -402.161445652167     Delta-E=       -0.000000000035 Rises=F Damp=F
 DIIS: error= 4.49D-08 at cycle   8 NSaved=   8.
 NSaved= 8 IEnMin= 8 EnMin= -402.161445652167     IErMin= 8 ErrMin= 4.49D-08
 ErrMax= 4.49D-08  0.00D+00 EMaxC= 1.00D-01 BMatC= 5.75D-13 BMatP= 3.41D-11
 IDIUse=1 WtCom= 1.00D+00 WtEn= 0.00D+00
 Coeff-Com:  0.146D-03-0.193D-02-0.229D-02-0.171D-02 0.169D-01 0.748D-01
 Coeff-Com:  0.166D+00 0.748D+00
 Coeff:      0.146D-03-0.193D-02-0.229D-02-0.171D-02 0.169D-01 0.748D-01
 Coeff:      0.166D+00 0.748D+00
 Gap=     0.211 Goal=   None    Shift=    0.000
 RMSDP=7.94D-09 MaxDP=1.76D-07 DE=-3.47D-11 OVMax= 3.61D-07

 SCF Done:  E(RB3LYP) =  -402.161445652     A.U. after    8 cycles
            NFock=  8  Conv=0.79D-08     -V/T= 2.0095
 KE= 3.983816147697D+02 PE=-1.831652908745D+03 EE= 5.826714311164D+02
 Leave Link  502 at Tue Apr  9 11:55:08 2024, MaxMem=  7516192768 cpu:              96.4 elap:               3.5
 (Enter /public3/home/scg9909/software-scg9909/g16/l701.exe)
 ... and contract with generalized density number  0.
 Compute integral first derivatives.
 R6Disp: Adding Grimme-D3(BJ) dispersion energy 1st derivatives to the gradient.
 Leave Link  701 at Tue Apr  9 11:55:08 2024, MaxMem=  7516192768 cpu:               2.0 elap:               0.1
 (Enter /public3/home/scg9909/software-scg9909/g16/l702.exe)
 L702 exits ... SP integral derivatives will be done elsewhere.
 Leave Link  702 at Tue Apr  9 11:55:08 2024, MaxMem=  7516192768 cpu:               0.2 elap:               0.0
 (Enter /public3/home/scg9909/software-scg9909/g16/l703.exe)
 Integral derivatives from FoFJK, PRISM(SPDF).
 Compute integral first derivatives, UseDBF=F ICtDFT=           0.
 Calling FoFJK, ICntrl=      2127 FMM=F ISym2X=0 I1Cent= 0 IOpClX= 0 NMat=1 NMatS=1 NMatT=0.
 FoFJK:  IHMeth= 1 ICntrl=    2127 DoSepK=F KAlg= 0 I1Cent=           0 FoldK=F
 IRaf=         0 NMat=       1 IRICut=       1 DoRegI=T DoRafI=F ISym2E= 0 IDoP0=0 IntGTp=1.
 FoFCou: FMM=F IPFlag=           0 FMFlag=      100000 FMFlg1=         800
         NFxFlg=           0 DoJE=F BraDBF=F KetDBF=F FulRan=T
         wScrn=  0.000000 ICntrl=      2127 IOpCl=  0 I1Cent=           0 NGrid=           0
         NMat0=    1 NMatS0=      1 NMatT0=    0 NMatD0=    1 NMtDS0=    0 NMtDT0=    0
 Symmetry not used in FoFCou.
 Leave Link  703 at Tue Apr  9 11:55:09 2024, MaxMem=  7516192768 cpu:              20.4 elap:               0.7
 (Enter /public3/home/scg9909/software-scg9909/g16/l716.exe)
 Dipole        = 9.50543402D-01 1.17819126D+00 1.03931784D-01
 ***** Axes restored to original set *****
 -------------------------------------------------------------------
 Center     Atomic                   Forces (Hartrees/Bohr)
 Number     Number              X              Y              Z
 -------------------------------------------------------------------
      1        8          -0.000022900    0.000025088    0.000006349
      2        6           0.000064478   -0.000049292   -0.000026566
      3        6          -0.000029067    0.000026437    0.000074435
      4        6           0.000002075    0.000032256   -0.000063551
      5        6           0.000017788   -0.000036298    0.000031286
      6        6          -0.000045809    0.000040234    0.000001314
      7        6          -0.000001204   -0.000053424   -0.000013421
      8        6           0.000039311    0.000043911    0.000040432
      9        7          -0.000072280    0.000000455   -0.000030119
     10        1           0.000011024   -0.000015351   -0.000009108
     11        1           0.000024554   -0.000013444   -0.000026948
     12        1           0.000004136   -0.000019737    0.000020612
     13        1           0.000008835    0.000001727    0.000003937
     14        1          -0.000025069    0.000013038   -0.000006819
     15        1           0.000002771   -0.000001602    0.000004270
     16        1           0.000022480    0.000017434   -0.000002607
     17        1           0.000005130    0.000001883    0.000000387
     18        1          -0.000006252   -0.000013315   -0.000003885
 -------------------------------------------------------------------
 Cartesian Forces:  Max     0.000074435 RMS     0.000029215
 Leave Link  716 at Tue Apr  9 11:55:09 2024, MaxMem=  7516192768 cpu:               0.2 elap:               0.0
 (Enter /public3/home/scg9909/software-scg9909/g16/l103.exe)

 GradGradGradGradGradGradGradGradGradGradGradGradGradGradGradGradGradGrad
 Berny optimization.
 Using GEDIIS/GDIIS optimizer.
 FormGI is forming the generalized inverse of G from B-inverse, IUseBI=4.
 Internal  Forces:  Max     0.000041301 RMS     0.000011138
 Search for a local minimum.
 Step number   9 out of a maximum of  108
 All quantities printed in internal units (Hartrees-Bohrs-Radians)
 RMS Force = .11138D-04 SwitMx=.10000D-02 MixMth= 2
 Mixed Optimization -- En-DIIS/RFO-DIIS
 Swapping is turned off.
 Update second derivatives using D2CorX and points    2    3    4    5    6
                                                      7    8    9
 DE= -1.42D-06 DEPred=-7.14D-07 R= 2.00D+00
 TightC=F SS=  1.41D+00  RLast= 2.98D-02 DXNew= 1.3044D+00 8.9337D-02
 Trust test= 2.00D+00 RLast= 2.98D-02 DXMaxT set to 7.76D-01
 ITU=  1  1  1  1  1  1  1  1  0
     Eigenvalues ---    0.00205   0.00435   0.00687   0.01409   0.01762
     Eigenvalues ---    0.02212   0.02621   0.03219   0.04016   0.04374
     Eigenvalues ---    0.04550   0.05156   0.05477   0.06036   0.06187
     Eigenvalues ---    0.06812   0.07109   0.07471   0.08110   0.08309
     Eigenvalues ---    0.08840   0.10642   0.12466   0.15558   0.15952
     Eigenvalues ---    0.19437   0.22195   0.22541   0.25224   0.26050
     Eigenvalues ---    0.28405   0.29257   0.29474   0.31124   0.33848
     Eigenvalues ---    0.34065   0.34290   0.34320   0.34361   0.34553
     Eigenvalues ---    0.34572   0.35752   0.35912   0.36269   0.45437
     Eigenvalues ---    0.47839   0.55733   0.96232
 En-DIIS/RFO-DIIS/Sim-DIIS IScMMF=       -3 using points:     9    8    7    6    5    4    3    2
 RFO step:  Lambda=-1.95305928D-07.
 NNeg= 0 NGDIIS= 8 SimSw=  2.50D-01 Rises=F DC= -1.42D-06 SmlDif=  1.00D-05
 NRisDI= 0 DoIntr=F SqrtH=F CThrHd= 10.0 CDAdj=  3.0
 RMS Error=  0.6366904953D-03 NUsed= 8 OKEnD=F EnDIS=F
 InvSVX:  RCond= 1.57D-07 Info=           0 Equed=N FErr=  3.66D-12 BErr=  5.81D-17
 DidBck=F Rises=F RFO-DIIS coefs:    1.29226   -0.13894   -0.56319    0.44998    0.04134
                  RFO-DIIS coefs:   -0.03838   -0.06920    0.02614
 Iteration  1 RMS(Cart)=  0.00078459 RMS(Int)=  0.00000326
 Iteration  2 RMS(Cart)=  0.00000042 RMS(Int)=  0.00000324
 ITry= 1 IFail=0 DXMaxC= 3.56D-03 DCOld= 1.00D+10 DXMaxT= 7.76D-01 DXLimC= 3.00D+00 Rises=F
 Variable       Old X    -DE/DX   Delta X   Delta X   Delta X     New X
                                 (Linear)    (Quad)   (Total)
    R1        2.30105   0.00003   0.00000   0.00001   0.00001   2.30106
    R2        2.90266   0.00000   0.00005  -0.00006  -0.00000   2.90266
    R3        2.60440  -0.00004  -0.00001   0.00001  -0.00001   2.60439
    R4        2.91663  -0.00002  -0.00036   0.00017  -0.00019   2.91645
    R5        2.06369  -0.00002   0.00005  -0.00011  -0.00006   2.06363
    R6        2.07485   0.00001   0.00008  -0.00001   0.00007   2.07492
    R7        2.90752  -0.00003   0.00003  -0.00011  -0.00009   2.90744
    R8        2.06625   0.00001   0.00006  -0.00002   0.00004   2.06629
    R9        2.07215   0.00001  -0.00002   0.00006   0.00004   2.07219
   R10        2.92877  -0.00002  -0.00009   0.00007  -0.00002   2.92875
   R11        2.78648   0.00000   0.00029  -0.00013   0.00016   2.78664
   R12        2.07691   0.00000  -0.00004   0.00003  -0.00001   2.07690
   R13        2.87590  -0.00003  -0.00038   0.00013  -0.00026   2.87565
   R14        2.08056   0.00000  -0.00004   0.00005   0.00001   2.08057
   R15        2.06872  -0.00000   0.00010  -0.00007   0.00003   2.06875
   R16        2.53005   0.00001   0.00003  -0.00004  -0.00001   2.53004
   R17        2.04584   0.00001   0.00006  -0.00004   0.00002   2.04586
   R18        2.65106   0.00004   0.00021  -0.00001   0.00021   2.65127
   R19        2.04423  -0.00001   0.00001  -0.00006  -0.00005   2.04419
    A1        2.23856  -0.00002  -0.00008   0.00000  -0.00009   2.23848
    A2        2.19993   0.00002   0.00018  -0.00009   0.00008   2.20001
    A3        1.84465  -0.00000  -0.00007   0.00008   0.00000   1.84465
    A4        1.81068   0.00000   0.00001  -0.00021  -0.00021   1.81047
    A5        1.92025   0.00001   0.00018   0.00008   0.00026   1.92051
    A6        1.90552  -0.00001  -0.00017  -0.00005  -0.00022   1.90529
    A7        2.00006  -0.00000   0.00028  -0.00006   0.00022   2.00028
    A8        1.94649  -0.00001  -0.00017  -0.00010  -0.00026   1.94623
    A9        1.87915   0.00001  -0.00014   0.00032   0.00018   1.87933
   A10        1.79661   0.00000  -0.00022   0.00013  -0.00010   1.79651
   A11        1.98384   0.00001   0.00027  -0.00001   0.00026   1.98409
   A12        1.91637   0.00000   0.00005  -0.00005   0.00000   1.91637
   A13        1.96876  -0.00000   0.00003   0.00003   0.00006   1.96882
   A14        1.91028  -0.00000  -0.00022   0.00007  -0.00015   1.91013
   A15        1.88633  -0.00001   0.00006  -0.00015  -0.00009   1.88624
   A16        2.11535  -0.00000   0.00001  -0.00018  -0.00016   2.11518
   A17        1.79269   0.00000  -0.00001  -0.00010  -0.00011   1.79258
   A18        1.92183  -0.00001  -0.00023   0.00013  -0.00010   1.92173
   A19        1.81254  -0.00000   0.00000   0.00006   0.00007   1.81260
   A20        1.91181   0.00001   0.00012   0.00026   0.00037   1.91218
   A21        1.89186  -0.00001   0.00013  -0.00023  -0.00010   1.89177
   A22        1.78863   0.00002   0.00019  -0.00001   0.00018   1.78881
   A23        1.95583  -0.00000   0.00005   0.00005   0.00009   1.95592
   A24        1.94395   0.00001  -0.00014   0.00018   0.00004   1.94399
   A25        1.93462  -0.00000   0.00036  -0.00019   0.00017   1.93479
   A26        1.97711  -0.00003  -0.00027  -0.00013  -0.00040   1.97672
   A27        1.86568   0.00000  -0.00017   0.00009  -0.00008   1.86560
   A28        1.93020  -0.00000   0.00023  -0.00017   0.00007   1.93027
   A29        2.16533  -0.00000  -0.00016   0.00011  -0.00005   2.16528
   A30        2.18576   0.00000  -0.00007   0.00005  -0.00002   2.18575
   A31        1.93770  -0.00001  -0.00016   0.00018   0.00003   1.93773
   A32        2.26908   0.00001   0.00035  -0.00024   0.00011   2.26919
   A33        2.07607   0.00000  -0.00020   0.00007  -0.00013   2.07594
   A34        1.99714  -0.00000  -0.00023   0.00005  -0.00019   1.99695
   A35        2.26036   0.00000  -0.00022  -0.00010  -0.00033   2.26003
   A36        1.91901  -0.00001   0.00004  -0.00007  -0.00003   1.91898
    D1       -2.72060  -0.00000   0.00065   0.00016   0.00081  -2.71979
    D2       -0.57322   0.00000   0.00108   0.00001   0.00109  -0.57214
    D3        1.48543   0.00002   0.00092   0.00041   0.00133   1.48676
    D4        0.41194  -0.00001   0.00075  -0.00001   0.00073   0.41267
    D5        2.55932  -0.00000   0.00118  -0.00017   0.00101   2.56033
    D6       -1.66521   0.00001   0.00102   0.00023   0.00125  -1.66396
    D7        3.03771  -0.00000  -0.00020  -0.00015  -0.00035   3.03736
    D8        0.43109   0.00001   0.00075   0.00017   0.00092   0.43201
    D9       -0.09510   0.00000  -0.00029   0.00002  -0.00027  -0.09536
   D10       -2.70171   0.00001   0.00066   0.00034   0.00100  -2.70072
   D11       -0.55817   0.00001  -0.00084  -0.00007  -0.00091  -0.55908
   D12       -2.69327   0.00000  -0.00088  -0.00018  -0.00106  -2.69433
   D13        1.47475   0.00000  -0.00118   0.00006  -0.00112   1.47363
   D14       -2.65211  -0.00000  -0.00122   0.00001  -0.00121  -2.65332
   D15        1.49598  -0.00001  -0.00126  -0.00011  -0.00137   1.49462
   D16       -0.61919  -0.00001  -0.00156   0.00013  -0.00143  -0.62062
   D17        1.49064  -0.00001  -0.00111  -0.00030  -0.00141   1.48922
   D18       -0.64446  -0.00001  -0.00115  -0.00042  -0.00157  -0.64603
   D19       -2.75963  -0.00001  -0.00145  -0.00017  -0.00163  -2.76126
   D20        2.50402  -0.00000   0.00066   0.00002   0.00067   2.50469
   D21        0.49586  -0.00000   0.00066   0.00011   0.00076   0.49663
   D22       -1.51626   0.00000   0.00060   0.00037   0.00097  -1.51528
   D23       -1.63396   0.00001   0.00086   0.00010   0.00096  -1.63300
   D24        2.64107   0.00001   0.00085   0.00020   0.00105   2.64212
   D25        0.62895   0.00001   0.00080   0.00046   0.00126   0.63021
   D26        0.46676  -0.00000   0.00081  -0.00002   0.00078   0.46754
   D27       -1.54140  -0.00000   0.00080   0.00007   0.00087  -1.54052
   D28        2.72967   0.00001   0.00075   0.00033   0.00108   2.73075
   D29       -2.24061  -0.00001   0.00106   0.00011   0.00117  -2.23943
   D30       -0.16579   0.00000   0.00162  -0.00010   0.00153  -0.16426
   D31        1.92333   0.00001   0.00134   0.00017   0.00151   1.92484
   D32       -0.24261  -0.00001   0.00106  -0.00007   0.00099  -0.24162
   D33        1.83221   0.00000   0.00162  -0.00028   0.00134   1.83356
   D34       -2.36186   0.00001   0.00134  -0.00001   0.00133  -2.36052
   D35        1.77533  -0.00001   0.00127  -0.00019   0.00108   1.77641
   D36       -2.43304   0.00000   0.00183  -0.00040   0.00143  -2.43160
   D37       -0.34392   0.00001   0.00155  -0.00013   0.00142  -0.34250
   D38       -0.26173  -0.00000  -0.00021  -0.00008  -0.00030  -0.26202
   D39        2.44812  -0.00000  -0.00104  -0.00036  -0.00140   2.44673
   D40       -2.47926   0.00000  -0.00022   0.00014  -0.00009  -2.47935
   D41        0.23059  -0.00000  -0.00105  -0.00014  -0.00119   0.22940
   D42        1.77195  -0.00001  -0.00042  -0.00008  -0.00050   1.77144
   D43       -1.80139  -0.00001  -0.00124  -0.00036  -0.00161  -1.80300
   D44        0.19013   0.00001  -0.00077   0.00024  -0.00054   0.18959
   D45       -3.01463   0.00000  -0.00066   0.00015  -0.00052  -3.01514
   D46       -1.89954  -0.00000  -0.00110   0.00027  -0.00083  -1.90037
   D47        1.17889  -0.00001  -0.00099   0.00019  -0.00081   1.17808
   D48        2.28650   0.00001  -0.00096   0.00039  -0.00057   2.28592
   D49       -0.91826   0.00001  -0.00085   0.00030  -0.00055  -0.91881
   D50       -0.05359  -0.00001   0.00018  -0.00035  -0.00017  -0.05375
   D51        3.05953  -0.00000   0.00035  -0.00005   0.00029   3.05982
   D52       -3.13111  -0.00000   0.00008  -0.00026  -0.00019  -3.13130
   D53       -0.01799   0.00000   0.00024   0.00003   0.00026  -0.01773
   D54        2.50617  -0.00000  -0.00040   0.00003  -0.00037   2.50580
   D55       -0.11895   0.00000   0.00057   0.00031   0.00089  -0.11806
   D56       -0.61050  -0.00001  -0.00054  -0.00023  -0.00077  -0.61128
   D57        3.04757  -0.00000   0.00044   0.00006   0.00048   3.04805
         Item               Value     Threshold  Converged?
 Maximum Force            0.000041     0.000450     YES
 RMS     Force            0.000011     0.000300     YES
 Maximum Displacement     0.003565     0.001800     NO 
 RMS     Displacement     0.000785     0.001200     YES
 Predicted change in Energy=-7.922257D-08
 Lowest energy point so far.  Saving SCF results.
 GradGradGradGradGradGradGradGradGradGradGradGradGradGradGradGradGradGrad

 Leave Link  103 at Tue Apr  9 11:55:09 2024, MaxMem=  7516192768 cpu:               0.6 elap:               0.0
 (Enter /public3/home/scg9909/software-scg9909/g16/l202.exe)
                          Input orientation:                          
 ---------------------------------------------------------------------
 Center     Atomic      Atomic             Coordinates (Angstroms)
 Number     Number       Type             X           Y           Z
 ---------------------------------------------------------------------
      1          8           0       -1.342594    2.531351   -0.382390
      2          6           0       -1.115355    1.335758   -0.341893
      3          6           0       -2.091021    0.192428   -0.025302
      4          6           0       -1.174786   -0.941186    0.481904
      5          6           0        0.121616   -0.719330   -0.316379
      6          6           0        1.510928   -0.968948    0.323514
      7          6           0        2.246083    0.331061    0.031669
      8          6           0        1.397400    1.259240   -0.427363
      9          7           0        0.103948    0.733842   -0.566383
     10          1           0       -2.840024    0.528342    0.694886
     11          1           0       -2.618043   -0.096549   -0.944186
     12          1           0       -1.593854   -1.941144    0.340260
     13          1           0       -0.972846   -0.805277    1.551100
     14          1           0        0.063327   -1.238266   -1.283442
     15          1           0        1.441177   -1.144824    1.408125
     16          1           0        1.998179   -1.847931   -0.110561
     17          1           0        3.297993    0.490882    0.231702
     18          1           0        1.567773    2.300649   -0.665260
 ---------------------------------------------------------------------
                    Distance matrix (angstroms):
                    1          2          3          4          5
     1  O    0.000000
     2  C    1.217670   0.000000
     3  C    2.481575   1.536020   0.000000
     4  C    3.582412   2.422116   1.543317   0.000000
     5  C    3.565837   2.398778   2.410765   1.538548   0.000000
     6  C    4.570885   3.556938   3.800593   2.690524   1.549827
     7  C    4.229814   3.528205   4.339693   3.677454   2.395375
     8  C    3.021234   2.515372   3.669989   3.504964   2.356837
     9  N    2.314600   1.378186   2.324605   2.353674   1.474627
    10  H    2.723025   2.168252   1.092024   2.231119   3.369073
    11  H    2.974600   2.161558   1.098001   2.197757   2.878842
    12  H    4.537463   3.381181   2.221022   1.093434   2.206092
    13  H    3.874040   2.861427   2.175035   1.096555   2.166267
    14  H    4.122926   2.983522   2.875937   2.176608   1.099046
    15  H    4.946675   3.968842   4.039725   2.782555   2.212736
    16  H    5.514777   4.459090   4.570765   3.352746   2.199452
    17  H    5.106435   4.529953   5.403388   4.703102   3.443019
    18  H    2.933168   2.869626   4.270938   4.398534   3.366506
                    6          7          8          9         10
     6  C    0.000000
     7  C    1.521726   0.000000
     8  C    2.354045   1.338839   0.000000
     9  N    2.381388   2.260231   1.402992   0.000000
    10  H    4.616339   5.132959   4.444031   3.209362   0.000000
    11  H    4.406422   4.979445   4.269549   2.870805   1.768141
    12  H    3.253478   4.472501   4.447393   3.295464   2.788738
    13  H    2.775408   3.736501   3.714109   2.830567   2.449081
    14  H    2.179539   2.992779   2.958066   2.098817   3.932446
    15  H    1.100989   2.172727   3.024972   3.035828   4.651545
    16  H    1.094735   2.197656   3.180536   3.234415   5.450104
    17  H    2.309358   1.082622   2.153369   3.301196   6.155583
    18  H    3.416310   2.196609   1.081737   2.146495   4.941633
                   11         12         13         14         15
    11  H    0.000000
    12  H    2.470080   0.000000
    13  H    3.071713   1.772563   0.000000
    14  H    2.934000   2.424189   3.048895   0.000000
    15  H    4.807236   3.314494   2.441974   3.025183   0.000000
    16  H    5.007172   3.621413   3.560230   2.343287   1.763808
    17  H    6.060303   5.464129   4.654128   3.968460   2.739940
    18  H    4.831709   5.385143   4.584078   3.894794   4.023212
                   16         17         18
    16  H    0.000000
    17  H    2.697537   0.000000
    18  H    4.207571   2.659598   0.000000
 Stoichiometry    C7H9NO
 Framework group  C1[X(C7H9NO)]
 Deg. of freedom    48
 Full point group                 C1      NOp   1
 RotChk:  IX=0 Diff= 2.56D-04
 Largest Abelian subgroup         C1      NOp   1
 Largest concise Abelian subgroup C1      NOp   1
                         Standard orientation:                         
 ---------------------------------------------------------------------
 Center     Atomic      Atomic             Coordinates (Angstroms)
 Number     Number       Type             X           Y           Z
 ---------------------------------------------------------------------
      1          8           0       -1.971737   -1.561856   -0.197895
      2          6           0       -1.334745   -0.549030    0.028261
      3          6           0       -1.822354    0.907272    0.000366
      4          6           0       -0.535643    1.719575   -0.257245
      5          6           0        0.547600    0.879395    0.441193
      6          6           0        1.971716    0.749081   -0.156197
      7          6           0        2.180955   -0.757961   -0.182537
      8          6           0        1.032816   -1.397402    0.073166
      9          7           0        0.002492   -0.488137    0.356110
     10          1           0       -2.596394    1.028175   -0.760398
     11          1           0       -2.268204    1.156805    0.972250
     12          1           0       -0.582205    2.746165    0.116309
     13          1           0       -0.330038    1.758242   -1.333657
     14          1           0        0.617636    1.159388    1.501665
     15          1           0        2.034778    1.171354   -1.171030
     16          1           0        2.710684    1.277485    0.454672
     17          1           0        3.118661   -1.235589   -0.436798
     18          1           0        0.809459   -2.455799    0.065332
 ---------------------------------------------------------------------
 Rotational constants (GHZ):           2.8748966           1.7085537           1.1377130
 Leave Link  202 at Tue Apr  9 11:55:09 2024, MaxMem=  7516192768 cpu:               0.1 elap:               0.0
 (Enter /public3/home/scg9909/software-scg9909/g16/l301.exe)
 Standard basis: 6-31G(d) (6D, 7F)
 Ernie: Thresh=  0.10000D-02 Tol=  0.10000D-05 Strict=F.
 There are   153 symmetry adapted cartesian basis functions of A   symmetry.
 There are   153 symmetry adapted basis functions of A   symmetry.
   153 basis functions,   288 primitive gaussians,   153 cartesian basis functions
    33 alpha electrons       33 beta electrons
       nuclear repulsion energy       448.4771050603 Hartrees.
 IExCor=  402 DFT=T Ex+Corr=B3LYP ExCW=0 ScaHFX=  0.200000
 ScaDFX=  0.800000  0.720000  1.000000  0.810000 ScalE2=  1.000000  1.000000
 IRadAn=      5 IRanWt=     -1 IRanGd=            0 ICorTp=0 IEmpDi=141
 NAtoms=   18 NActive=   18 NUniq=   18 SFac= 1.00D+00 NAtFMM=   60 NAOKFM=F Big=F
 Integral buffers will be    131072 words long.
 Raffenetti 2 integral format.
 Two-electron integral symmetry is turned on.
 R6Disp:  Grimme-D3(BJ) Dispersion energy=       -0.0312208750 Hartrees.
 Nuclear repulsion after empirical dispersion term =      448.4458841854 Hartrees.
 Leave Link  301 at Tue Apr  9 11:55:09 2024, MaxMem=  7516192768 cpu:               0.6 elap:               0.0
 (Enter /public3/home/scg9909/software-scg9909/g16/l302.exe)
 NPDir=0 NMtPBC=     1 NCelOv=     1 NCel=       1 NClECP=     1 NCelD=      1
         NCelK=      1 NCelE2=     1 NClLst=     1 CellRange=     0.0.
 One-electron integrals computed using PRISM.
 One-electron integral symmetry used in STVInt
 NBasis=   153 RedAO= T EigKep=  1.83D-03  NBF=   153
 NBsUse=   153 1.00D-06 EigRej= -1.00D+00 NBFU=   153
 Precomputing XC quadrature grid using
 IXCGrd= 4 IRadAn=           5 IRanWt=          -1 IRanGd=           0 AccXCQ= 0.00D+00.
 Generated NRdTot=       0 NPtTot=           0 NUsed=           0 NTot=          32
 NSgBfM=   153   153   153   153   153 MxSgAt=    18 MxSgA2=    18.
 Leave Link  302 at Tue Apr  9 11:55:09 2024, MaxMem=  7516192768 cpu:               2.5 elap:               0.1
 (Enter /public3/home/scg9909/software-scg9909/g16/l303.exe)
 DipDrv:  MaxL=1.
 Leave Link  303 at Tue Apr  9 11:55:09 2024, MaxMem=  7516192768 cpu:               0.3 elap:               0.0
 (Enter /public3/home/scg9909/software-scg9909/g16/l401.exe)
 Initial guess from the checkpoint file:  "/public3/home/scg9909/tmp/Gau-65552.chk"
 B after Tr=     0.000000    0.000000   -0.000000
         Rot=    1.000000    0.000022    0.000008    0.000081 Ang=   0.01 deg.
 Guess basis will be translated and rotated to current coordinates.
 JPrj=2 DoOrth=T DoCkMO=T.
 Leave Link  401 at Tue Apr  9 11:55:09 2024, MaxMem=  7516192768 cpu:               1.4 elap:               0.1
 (Enter /public3/home/scg9909/software-scg9909/g16/l502.exe)
 Integral symmetry usage will be decided dynamically.
 Closed shell SCF:
 Using DIIS extrapolation, IDIIS=  1040.
 NGot=  7516192768 LenX=  7516139403 LenY=  7516115553
 Requested convergence on RMS density matrix=1.00D-08 within 128 cycles.
 Requested convergence on MAX density matrix=1.00D-06.
 Requested convergence on             energy=1.00D-06.
 No special actions if energy rises.
 Fock matrices will be formed incrementally for  20 cycles.

 Cycle   1  Pass 1  IDiag  1:
 FoFJK:  IHMeth= 1 ICntrl=       0 DoSepK=F KAlg= 0 I1Cent=           0 FoldK=F
 IRaf= 970000000 NMat=       1 IRICut=       1 DoRegI=T DoRafI=F ISym2E= 0 IDoP0=0 IntGTp=1.
 FoFCou: FMM=F IPFlag=           0 FMFlag=      100000 FMFlg1=           0
         NFxFlg=           0 DoJE=F BraDBF=F KetDBF=F FulRan=T
         wScrn=  0.000000 ICntrl=         0 IOpCl=  0 I1Cent=           0 NGrid=           0
         NMat0=    1 NMatS0=      1 NMatT0=    0 NMatD0=    1 NMtDS0=    0 NMtDT0=    0
 Symmetry not used in FoFCou.
 E= -402.161444575460    
 DIIS: error= 4.12D-05 at cycle   1 NSaved=   1.
 NSaved= 1 IEnMin= 1 EnMin= -402.161444575460     IErMin= 1 ErrMin= 4.12D-05
 ErrMax= 4.12D-05  0.00D+00 EMaxC= 1.00D-01 BMatC= 5.87D-07 BMatP= 5.87D-07
 IDIUse=1 WtCom= 1.00D+00 WtEn= 0.00D+00
 Coeff-Com:  0.100D+01
 Coeff:      0.100D+01
 Gap=     1.656 Goal=   None    Shift=    0.000
 RMSDP=8.72D-06 MaxDP=1.43D-04              OVMax= 2.38D-04

 Cycle   2  Pass 1  IDiag  1:
 RMSU=  8.72D-06    CP:  1.00D+00
 E= -402.161445777207     Delta-E=       -0.000001201746 Rises=F Damp=F
 DIIS: error= 5.11D-06 at cycle   2 NSaved=   2.
 NSaved= 2 IEnMin= 2 EnMin= -402.161445777207     IErMin= 2 ErrMin= 5.11D-06
 ErrMax= 5.11D-06  0.00D+00 EMaxC= 1.00D-01 BMatC= 8.88D-09 BMatP= 5.87D-07
 IDIUse=1 WtCom= 1.00D+00 WtEn= 0.00D+00
 Coeff-Com: -0.700D-01 0.107D+01
 Coeff:     -0.700D-01 0.107D+01
 Gap=     0.211 Goal=   None    Shift=    0.000
 RMSDP=1.48D-06 MaxDP=2.05D-05 DE=-1.20D-06 OVMax= 5.02D-05

 Cycle   3  Pass 1  IDiag  1:
 RMSU=  1.26D-06    CP:  1.00D+00  1.09D+00
 E= -402.161445784875     Delta-E=       -0.000000007669 Rises=F Damp=F
 DIIS: error= 5.98D-06 at cycle   3 NSaved=   3.
 NSaved= 3 IEnMin= 3 EnMin= -402.161445784875     IErMin= 2 ErrMin= 5.11D-06
 ErrMax= 5.98D-06  0.00D+00 EMaxC= 1.00D-01 BMatC= 8.79D-09 BMatP= 8.88D-09
 IDIUse=1 WtCom= 1.00D+00 WtEn= 0.00D+00
 Coeff-Com: -0.469D-01 0.589D+00 0.457D+00
 Coeff:     -0.469D-01 0.589D+00 0.457D+00
 Gap=     0.211 Goal=   None    Shift=    0.000
 RMSDP=7.65D-07 MaxDP=2.00D-05 DE=-7.67D-09 OVMax= 4.34D-05

 Cycle   4  Pass 1  IDiag  1:
 RMSU=  5.03D-07    CP:  1.00D+00  1.10D+00  5.50D-01
 E= -402.161445791838     Delta-E=       -0.000000006963 Rises=F Damp=F
 DIIS: error= 2.77D-06 at cycle   4 NSaved=   4.
 NSaved= 4 IEnMin= 4 EnMin= -402.161445791838     IErMin= 4 ErrMin= 2.77D-06
 ErrMax= 2.77D-06  0.00D+00 EMaxC= 1.00D-01 BMatC= 1.12D-09 BMatP= 8.79D-09
 IDIUse=1 WtCom= 1.00D+00 WtEn= 0.00D+00
 Coeff-Com: -0.158D-01 0.176D+00 0.278D+00 0.562D+00
 Coeff:     -0.158D-01 0.176D+00 0.278D+00 0.562D+00
 Gap=     0.211 Goal=   None    Shift=    0.000
 RMSDP=2.37D-07 MaxDP=7.51D-06 DE=-6.96D-09 OVMax= 1.32D-05

 Cycle   5  Pass 1  IDiag  1:
 RMSU=  1.36D-07    CP:  1.00D+00  1.10D+00  6.45D-01  7.02D-01
 E= -402.161445792761     Delta-E=       -0.000000000923 Rises=F Damp=F
 DIIS: error= 6.24D-07 at cycle   5 NSaved=   5.
 NSaved= 5 IEnMin= 5 EnMin= -402.161445792761     IErMin= 5 ErrMin= 6.24D-07
 ErrMax= 6.24D-07  0.00D+00 EMaxC= 1.00D-01 BMatC= 6.78D-11 BMatP= 1.12D-09
 IDIUse=1 WtCom= 1.00D+00 WtEn= 0.00D+00
 Coeff-Com: -0.494D-02 0.515D-01 0.115D+00 0.293D+00 0.545D+00
 Coeff:     -0.494D-02 0.515D-01 0.115D+00 0.293D+00 0.545D+00
 Gap=     0.211 Goal=   None    Shift=    0.000
 RMSDP=6.98D-08 MaxDP=1.94D-06 DE=-9.23D-10 OVMax= 3.36D-06

 Cycle   6  Pass 1  IDiag  1:
 RMSU=  5.60D-08    CP:  1.00D+00  1.10D+00  6.47D-01  7.28D-01  7.18D-01
 E= -402.161445792807     Delta-E=       -0.000000000046 Rises=F Damp=F
 DIIS: error= 2.39D-07 at cycle   6 NSaved=   6.
 NSaved= 6 IEnMin= 6 EnMin= -402.161445792807     IErMin= 6 ErrMin= 2.39D-07
 ErrMax= 2.39D-07  0.00D+00 EMaxC= 1.00D-01 BMatC= 1.43D-11 BMatP= 6.78D-11
 IDIUse=1 WtCom= 1.00D+00 WtEn= 0.00D+00
 Coeff-Com: -0.634D-03 0.401D-02 0.249D-01 0.846D-01 0.341D+00 0.546D+00
 Coeff:     -0.634D-03 0.401D-02 0.249D-01 0.846D-01 0.341D+00 0.546D+00
 Gap=     0.211 Goal=   None    Shift=    0.000
 RMSDP=3.19D-08 MaxDP=1.03D-06 DE=-4.60D-11 OVMax= 1.68D-06

 Cycle   7  Pass 1  IDiag  1:
 RMSU=  1.79D-08    CP:  1.00D+00  1.10D+00  6.54D-01  7.42D-01  7.71D-01
                    CP:  5.90D-01
 E= -402.161445792821     Delta-E=       -0.000000000014 Rises=F Damp=F
 DIIS: error= 8.68D-08 at cycle   7 NSaved=   7.
 NSaved= 7 IEnMin= 7 EnMin= -402.161445792821     IErMin= 7 ErrMin= 8.68D-08
 ErrMax= 8.68D-08  0.00D+00 EMaxC= 1.00D-01 BMatC= 2.27D-12 BMatP= 1.43D-11
 IDIUse=1 WtCom= 1.00D+00 WtEn= 0.00D+00
 Coeff-Com:  0.255D-03-0.449D-02 0.883D-03 0.163D-01 0.151D+00 0.353D+00
 Coeff-Com:  0.483D+00
 Coeff:      0.255D-03-0.449D-02 0.883D-03 0.163D-01 0.151D+00 0.353D+00
 Coeff:      0.483D+00
 Gap=     0.211 Goal=   None    Shift=    0.000
 RMSDP=1.14D-08 MaxDP=3.20D-07 DE=-1.40D-11 OVMax= 6.47D-07

 Cycle   8  Pass 1  IDiag  1:
 RMSU=  5.29D-09    CP:  1.00D+00  1.10D+00  6.53D-01  7.42D-01  7.87D-01
                    CP:  6.48D-01  4.89D-01
 E= -402.161445792819     Delta-E=        0.000000000001 Rises=F Damp=F
 DIIS: error= 1.36D-08 at cycle   8 NSaved=   8.
 NSaved= 8 IEnMin= 7 EnMin= -402.161445792821     IErMin= 8 ErrMin= 1.36D-08
 ErrMax= 1.36D-08  0.00D+00 EMaxC= 1.00D-01 BMatC= 7.52D-14 BMatP= 2.27D-12
 IDIUse=1 WtCom= 1.00D+00 WtEn= 0.00D+00
 Coeff-Com:  0.156D-03-0.221D-02-0.168D-02-0.475D-03 0.376D-01 0.106D+00
 Coeff-Com:  0.219D+00 0.641D+00
 Coeff:      0.156D-03-0.221D-02-0.168D-02-0.475D-03 0.376D-01 0.106D+00
 Coeff:      0.219D+00 0.641D+00
 Gap=     0.211 Goal=   None    Shift=    0.000
 RMSDP=2.49D-09 MaxDP=6.75D-08 DE= 1.36D-12 OVMax= 1.28D-07

 SCF Done:  E(RB3LYP) =  -402.161445793     A.U. after    8 cycles
            NFock=  8  Conv=0.25D-08     -V/T= 2.0095
 KE= 3.983818016967D+02 PE=-1.831667945652D+03 EE= 5.826788139767D+02
 Leave Link  502 at Tue Apr  9 11:55:13 2024, MaxMem=  7516192768 cpu:              94.9 elap:               3.4
 (Enter /public3/home/scg9909/software-scg9909/g16/l701.exe)
 ... and contract with generalized density number  0.
 Compute integral first derivatives.
 R6Disp: Adding Grimme-D3(BJ) dispersion energy 1st derivatives to the gradient.
 Leave Link  701 at Tue Apr  9 11:55:13 2024, MaxMem=  7516192768 cpu:               2.0 elap:               0.1
 (Enter /public3/home/scg9909/software-scg9909/g16/l702.exe)
 L702 exits ... SP integral derivatives will be done elsewhere.
 Leave Link  702 at Tue Apr  9 11:55:13 2024, MaxMem=  7516192768 cpu:               0.2 elap:               0.0
 (Enter /public3/home/scg9909/software-scg9909/g16/l703.exe)
 Integral derivatives from FoFJK, PRISM(SPDF).
 Compute integral first derivatives, UseDBF=F ICtDFT=           0.
 Calling FoFJK, ICntrl=      2127 FMM=F ISym2X=0 I1Cent= 0 IOpClX= 0 NMat=1 NMatS=1 NMatT=0.
 FoFJK:  IHMeth= 1 ICntrl=    2127 DoSepK=F KAlg= 0 I1Cent=           0 FoldK=F
 IRaf=         0 NMat=       1 IRICut=       1 DoRegI=T DoRafI=F ISym2E= 0 IDoP0=0 IntGTp=1.
 FoFCou: FMM=F IPFlag=           0 FMFlag=      100000 FMFlg1=         800
         NFxFlg=           0 DoJE=F BraDBF=F KetDBF=F FulRan=T
         wScrn=  0.000000 ICntrl=      2127 IOpCl=  0 I1Cent=           0 NGrid=           0
         NMat0=    1 NMatS0=      1 NMatT0=    0 NMatD0=    1 NMtDS0=    0 NMtDT0=    0
 Symmetry not used in FoFCou.
 Leave Link  703 at Tue Apr  9 11:55:13 2024, MaxMem=  7516192768 cpu:              20.1 elap:               0.7
 (Enter /public3/home/scg9909/software-scg9909/g16/l716.exe)
 Dipole        = 9.50903908D-01 1.17805530D+00 1.03729002D-01
 ***** Axes restored to original set *****
 -------------------------------------------------------------------
 Center     Atomic                   Forces (Hartrees/Bohr)
 Number     Number              X              Y              Z
 -------------------------------------------------------------------
      1        8          -0.000001724    0.000010786   -0.000000256
      2        6           0.000011423   -0.000010959    0.000001942
      3        6          -0.000025094    0.000011487    0.000002917
      4        6           0.000017802   -0.000015394   -0.000016503
      5        6           0.000006032   -0.000000993    0.000016760
      6        6          -0.000020869   -0.000028571   -0.000013251
      7        6          -0.000000361    0.000025225    0.000002965
      8        6          -0.000005734   -0.000005607   -0.000009610
      9        7           0.000008783    0.000015812    0.000006396
     10        1           0.000007166   -0.000004927    0.000000182
     11        1           0.000008881   -0.000007336   -0.000001579
     12        1          -0.000003196   -0.000005443    0.000007448
     13        1           0.000001025    0.000002986   -0.000000114
     14        1          -0.000002454   -0.000001739    0.000002377
     15        1          -0.000003342    0.000006590   -0.000001597
     16        1           0.000000819    0.000002077    0.000002476
     17        1          -0.000002172    0.000002833    0.000000462
     18        1           0.000003014    0.000003172   -0.000001016
 -------------------------------------------------------------------
 Cartesian Forces:  Max     0.000028571 RMS     0.000009924
 Leave Link  716 at Tue Apr  9 11:55:13 2024, MaxMem=  7516192768 cpu:               0.2 elap:               0.0
 (Enter /public3/home/scg9909/software-scg9909/g16/l103.exe)

 GradGradGradGradGradGradGradGradGradGradGradGradGradGradGradGradGradGrad
 Berny optimization.
 Using GEDIIS/GDIIS optimizer.
 FormGI is forming the generalized inverse of G from B-inverse, IUseBI=4.
 Internal  Forces:  Max     0.000021079 RMS     0.000004525
 Search for a local minimum.
 Step number  10 out of a maximum of  108
 All quantities printed in internal units (Hartrees-Bohrs-Radians)
 RMS Force = .45252D-05 SwitMx=.10000D-02 MixMth= 2
 Mixed Optimization -- En-DIIS/RFO-DIIS
 Swapping is turned off.
 Update second derivatives using D2CorX and points    2    3    4    5    6
                                                      7    8    9   10
 DE= -1.41D-07 DEPred=-7.92D-08 R= 1.78D+00
 Trust test= 1.78D+00 RLast= 7.77D-03 DXMaxT set to 7.76D-01
 ITU=  0  1  1  1  1  1  1  1  1  0
     Eigenvalues ---    0.00193   0.00399   0.00641   0.01408   0.01880
     Eigenvalues ---    0.02206   0.02576   0.03202   0.04048   0.04387
     Eigenvalues ---    0.04629   0.05055   0.05378   0.06008   0.06134
     Eigenvalues ---    0.06784   0.07067   0.07456   0.08123   0.08209
     Eigenvalues ---    0.08740   0.10632   0.12357   0.15304   0.15953
     Eigenvalues ---    0.19414   0.22157   0.22702   0.25078   0.25339
     Eigenvalues ---    0.27986   0.28611   0.29631   0.30136   0.33850
     Eigenvalues ---    0.34014   0.34275   0.34311   0.34353   0.34449
     Eigenvalues ---    0.34569   0.35759   0.36009   0.36684   0.44423
     Eigenvalues ---    0.47764   0.55727   0.95996
 En-DIIS/RFO-DIIS/Sim-DIIS IScMMF=       -3 using points:    10    9    8    7    6    5    4    3    2
 RFO step:  Lambda=-9.00065219D-09.
 NNeg= 0 NGDIIS= 9 SimSw=  2.50D-01 Rises=F DC= -1.41D-07 SmlDif=  1.00D-05
 NRisDI= 0 DoIntr=F SqrtH=F CThrHd= 10.0 CDAdj=  3.0
 RMS Error=  0.1137274350D-03 NUsed= 9 OKEnD=F EnDIS=F
 InvSVX:  RCond= 6.61D-08 Info=           0 Equed=N FErr=  9.71D-13 BErr=  6.79D-17
 DIIS inversion failure, remove point   9.
 InvSVX:  RCond= 8.70D-08 Info=           0 Equed=N FErr=  7.14D-13 BErr=  1.11D-16
 DIIS inversion failure, remove point   8.
 InvSVX:  RCond= 1.01D-07 Info=           0 Equed=N FErr=  5.86D-13 BErr=  1.08D-16
 RFO-DIIS uses    7 points instead of    9
 DidBck=F Rises=F RFO-DIIS coefs:    1.03095    0.06841   -0.18750    0.07399    0.03695
                  RFO-DIIS coefs:   -0.02660    0.00379    0.00000    0.00000
 Iteration  1 RMS(Cart)=  0.00009783 RMS(Int)=  0.00000030
 Iteration  2 RMS(Cart)=  0.00000001 RMS(Int)=  0.00000030
 ITry= 1 IFail=0 DXMaxC= 4.72D-04 DCOld= 1.00D+10 DXMaxT= 7.76D-01 DXLimC= 3.00D+00 Rises=F
 Variable       Old X    -DE/DX   Delta X   Delta X   Delta X     New X
                                 (Linear)    (Quad)   (Total)
    R1        2.30106   0.00001   0.00001   0.00001   0.00001   2.30108
    R2        2.90266   0.00001   0.00000   0.00003   0.00003   2.90269
    R3        2.60439  -0.00001  -0.00002   0.00000  -0.00002   2.60438
    R4        2.91645   0.00001  -0.00004   0.00006   0.00001   2.91646
    R5        2.06363  -0.00001  -0.00001  -0.00001  -0.00002   2.06360
    R6        2.07492  -0.00000   0.00002  -0.00002   0.00000   2.07492
    R7        2.90744  -0.00001  -0.00000  -0.00006  -0.00006   2.90738
    R8        2.06629   0.00000   0.00000   0.00001   0.00002   2.06631
    R9        2.07219   0.00000   0.00002  -0.00001   0.00000   2.07219
   R10        2.92875  -0.00002  -0.00006  -0.00002  -0.00007   2.92867
   R11        2.78664   0.00001   0.00003   0.00000   0.00003   2.78667
   R12        2.07690  -0.00000   0.00001  -0.00002  -0.00000   2.07689
   R13        2.87565   0.00002  -0.00003   0.00008   0.00005   2.87570
   R14        2.08057  -0.00000   0.00001  -0.00001  -0.00001   2.08056
   R15        2.06875  -0.00000   0.00002  -0.00002  -0.00001   2.06874
   R16        2.53004  -0.00001   0.00003  -0.00004  -0.00001   2.53003
   R17        2.04586  -0.00000   0.00000  -0.00000  -0.00000   2.04586
   R18        2.65127  -0.00001   0.00004  -0.00005  -0.00001   2.65126
   R19        2.04419   0.00000  -0.00001   0.00001   0.00000   2.04419
    A1        2.23848   0.00000  -0.00003   0.00004   0.00000   2.23848
    A2        2.20001  -0.00000   0.00004  -0.00003   0.00001   2.20002
    A3        1.84465   0.00000  -0.00000  -0.00001  -0.00001   1.84464
    A4        1.81047   0.00000  -0.00002  -0.00001  -0.00003   1.81044
    A5        1.92051   0.00000   0.00007  -0.00003   0.00005   1.92056
    A6        1.90529   0.00000  -0.00009   0.00007  -0.00002   1.90527
    A7        2.00028  -0.00000   0.00004  -0.00004  -0.00001   2.00027
    A8        1.94623  -0.00001  -0.00003  -0.00005  -0.00009   1.94614
    A9        1.87933   0.00001   0.00003   0.00006   0.00009   1.87942
   A10        1.79651  -0.00000  -0.00002  -0.00000  -0.00003   1.79648
   A11        1.98409   0.00000   0.00004   0.00001   0.00005   1.98415
   A12        1.91637  -0.00000   0.00003  -0.00007  -0.00004   1.91633
   A13        1.96882   0.00000  -0.00001   0.00010   0.00009   1.96891
   A14        1.91013  -0.00000   0.00000  -0.00005  -0.00005   1.91009
   A15        1.88624  -0.00000  -0.00003   0.00001  -0.00003   1.88621
   A16        2.11518  -0.00000  -0.00001  -0.00002  -0.00004   2.11515
   A17        1.79258   0.00001  -0.00003   0.00004   0.00001   1.79259
   A18        1.92173  -0.00000   0.00004  -0.00008  -0.00004   1.92169
   A19        1.81260  -0.00000  -0.00000   0.00001   0.00001   1.81261
   A20        1.91218   0.00000   0.00001   0.00003   0.00004   1.91222
   A21        1.89177  -0.00000  -0.00002   0.00004   0.00002   1.89179
   A22        1.78881  -0.00000   0.00002  -0.00002   0.00000   1.78881
   A23        1.95592  -0.00000  -0.00004  -0.00001  -0.00005   1.95587
   A24        1.94399   0.00000   0.00004   0.00002   0.00006   1.94405
   A25        1.93479  -0.00000   0.00001  -0.00004  -0.00004   1.93475
   A26        1.97672   0.00000  -0.00002   0.00002   0.00000   1.97672
   A27        1.86560   0.00000  -0.00001   0.00003   0.00002   1.86562
   A28        1.93027   0.00000   0.00003  -0.00002   0.00002   1.93028
   A29        2.16528   0.00000  -0.00001   0.00001   0.00000   2.16528
   A30        2.18575  -0.00000  -0.00002   0.00000  -0.00001   2.18573
   A31        1.93773  -0.00000  -0.00005   0.00003  -0.00003   1.93771
   A32        2.26919  -0.00000   0.00006  -0.00006  -0.00001   2.26918
   A33        2.07594   0.00001  -0.00000   0.00003   0.00003   2.07597
   A34        1.99695  -0.00000  -0.00002  -0.00000  -0.00003   1.99693
   A35        2.26003  -0.00000   0.00001  -0.00000   0.00001   2.26004
   A36        1.91898   0.00001   0.00002  -0.00000   0.00002   1.91900
    D1       -2.71979  -0.00000   0.00007   0.00002   0.00010  -2.71970
    D2       -0.57214  -0.00000   0.00014  -0.00004   0.00010  -0.57204
    D3        1.48676   0.00000   0.00016   0.00006   0.00022   1.48698
    D4        0.41267  -0.00000   0.00010   0.00001   0.00011   0.41278
    D5        2.56033  -0.00000   0.00017  -0.00006   0.00011   2.56044
    D6       -1.66396   0.00000   0.00019   0.00004   0.00024  -1.66373
    D7        3.03736   0.00000   0.00002  -0.00006  -0.00004   3.03732
    D8        0.43201  -0.00000  -0.00000  -0.00004  -0.00004   0.43197
    D9       -0.09536  -0.00000  -0.00001  -0.00004  -0.00005  -0.09542
   D10       -2.70072  -0.00000  -0.00003  -0.00002  -0.00006  -2.70077
   D11       -0.55908   0.00000  -0.00015   0.00002  -0.00013  -0.55921
   D12       -2.69433  -0.00000  -0.00014  -0.00011  -0.00025  -2.69458
   D13        1.47363  -0.00000  -0.00015  -0.00007  -0.00022   1.47341
   D14       -2.65332   0.00000  -0.00024   0.00008  -0.00016  -2.65348
   D15        1.49462  -0.00000  -0.00024  -0.00005  -0.00028   1.49433
   D16       -0.62062  -0.00000  -0.00024  -0.00001  -0.00025  -0.62087
   D17        1.48922   0.00000  -0.00028   0.00007  -0.00021   1.48901
   D18       -0.64603  -0.00000  -0.00027  -0.00006  -0.00033  -0.64636
   D19       -2.76126  -0.00000  -0.00028  -0.00002  -0.00030  -2.76156
   D20        2.50469  -0.00000   0.00011  -0.00001   0.00010   2.50479
   D21        0.49663  -0.00000   0.00014  -0.00003   0.00011   0.49673
   D22       -1.51528  -0.00000   0.00016  -0.00007   0.00009  -1.51519
   D23       -1.63300   0.00000   0.00014   0.00006   0.00020  -1.63280
   D24        2.64212   0.00000   0.00017   0.00003   0.00020   2.64232
   D25        0.63021  -0.00000   0.00019  -0.00000   0.00019   0.63040
   D26        0.46754   0.00000   0.00009   0.00010   0.00019   0.46773
   D27       -1.54052   0.00000   0.00012   0.00007   0.00019  -1.54033
   D28        2.73075   0.00000   0.00014   0.00004   0.00018   2.73093
   D29       -2.23943  -0.00000   0.00011  -0.00003   0.00008  -2.23936
   D30       -0.16426  -0.00000   0.00012  -0.00011   0.00001  -0.16425
   D31        1.92484  -0.00000   0.00010  -0.00006   0.00004   1.92489
   D32       -0.24162   0.00000   0.00007   0.00001   0.00008  -0.24154
   D33        1.83356  -0.00000   0.00007  -0.00006   0.00001   1.83356
   D34       -2.36052   0.00000   0.00006  -0.00002   0.00004  -2.36049
   D35        1.77641   0.00000   0.00005   0.00007   0.00012   1.77653
   D36       -2.43160  -0.00000   0.00005   0.00000   0.00005  -2.43155
   D37       -0.34250   0.00000   0.00004   0.00005   0.00009  -0.34241
   D38       -0.26202  -0.00000  -0.00008   0.00004  -0.00004  -0.26206
   D39        2.44673  -0.00000  -0.00006   0.00003  -0.00003   2.44669
   D40       -2.47935   0.00000  -0.00005   0.00005  -0.00001  -2.47936
   D41        0.22940   0.00000  -0.00003   0.00003  -0.00000   0.22940
   D42        1.77144  -0.00000  -0.00006  -0.00001  -0.00007   1.77138
   D43       -1.80300  -0.00000  -0.00004  -0.00002  -0.00006  -1.80306
   D44        0.18959  -0.00000  -0.00008  -0.00004  -0.00012   0.18947
   D45       -3.01514  -0.00000  -0.00004  -0.00003  -0.00007  -3.01521
   D46       -1.90037   0.00000  -0.00005   0.00001  -0.00004  -1.90042
   D47        1.17808   0.00000  -0.00001   0.00002   0.00001   1.17809
   D48        2.28592   0.00000  -0.00003  -0.00002  -0.00005   2.28588
   D49       -0.91881   0.00000   0.00001  -0.00001   0.00001  -0.91880
   D50       -0.05375   0.00001   0.00007   0.00006   0.00013  -0.05362
   D51        3.05982   0.00000   0.00010  -0.00004   0.00005   3.05987
   D52       -3.13130   0.00000   0.00002   0.00005   0.00007  -3.13123
   D53       -0.01773   0.00000   0.00005  -0.00005  -0.00001  -0.01773
   D54        2.50580  -0.00000  -0.00001  -0.00008  -0.00008   2.50572
   D55       -0.11806  -0.00000  -0.00002  -0.00006  -0.00008  -0.11814
   D56       -0.61128  -0.00000  -0.00003   0.00002  -0.00001  -0.61129
   D57        3.04805   0.00000  -0.00004   0.00004  -0.00001   3.04804
         Item               Value     Threshold  Converged?
 Maximum Force            0.000021     0.000450     YES
 RMS     Force            0.000005     0.000300     YES
 Maximum Displacement     0.000472     0.001800     YES
 RMS     Displacement     0.000098     0.001200     YES
 Predicted change in Energy=-8.453093D-09
 Optimization completed.
    -- Stationary point found.
                           ----------------------------
                           !   Optimized Parameters   !
                           ! (Angstroms and Degrees)  !
 --------------------------                            --------------------------
 ! Name  Definition              Value          Derivative Info.                !
 --------------------------------------------------------------------------------
 ! R1    R(1,2)                  1.2177         -DE/DX =    0.0                 !
 ! R2    R(2,3)                  1.536          -DE/DX =    0.0                 !
 ! R3    R(2,9)                  1.3782         -DE/DX =    0.0                 !
 ! R4    R(3,4)                  1.5433         -DE/DX =    0.0                 !
 ! R5    R(3,10)                 1.092          -DE/DX =    0.0                 !
 ! R6    R(3,11)                 1.098          -DE/DX =    0.0                 !
 ! R7    R(4,5)                  1.5385         -DE/DX =    0.0                 !
 ! R8    R(4,12)                 1.0934         -DE/DX =    0.0                 !
 ! R9    R(4,13)                 1.0966         -DE/DX =    0.0                 !
 ! R10   R(5,6)                  1.5498         -DE/DX =    0.0                 !
 ! R11   R(5,9)                  1.4746         -DE/DX =    0.0                 !
 ! R12   R(5,14)                 1.099          -DE/DX =    0.0                 !
 ! R13   R(6,7)                  1.5217         -DE/DX =    0.0                 !
 ! R14   R(6,15)                 1.101          -DE/DX =    0.0                 !
 ! R15   R(6,16)                 1.0947         -DE/DX =    0.0                 !
 ! R16   R(7,8)                  1.3388         -DE/DX =    0.0                 !
 ! R17   R(7,17)                 1.0826         -DE/DX =    0.0                 !
 ! R18   R(8,9)                  1.403          -DE/DX =    0.0                 !
 ! R19   R(8,18)                 1.0817         -DE/DX =    0.0                 !
 ! A1    A(1,2,3)              128.2553         -DE/DX =    0.0                 !
 ! A2    A(1,2,9)              126.0516         -DE/DX =    0.0                 !
 ! A3    A(3,2,9)              105.6909         -DE/DX =    0.0                 !
 ! A4    A(2,3,4)              103.7321         -DE/DX =    0.0                 !
 ! A5    A(2,3,10)             110.0373         -DE/DX =    0.0                 !
 ! A6    A(2,3,11)             109.1652         -DE/DX =    0.0                 !
 ! A7    A(4,3,10)             114.6075         -DE/DX =    0.0                 !
 ! A8    A(4,3,11)             111.5106         -DE/DX =    0.0                 !
 ! A9    A(10,3,11)            107.6775         -DE/DX =    0.0                 !
 ! A10   A(3,4,5)              102.9326         -DE/DX =    0.0                 !
 ! A11   A(3,4,12)             113.6802         -DE/DX =    0.0                 !
 ! A12   A(3,4,13)             109.8001         -DE/DX =    0.0                 !
 ! A13   A(5,4,12)             112.8051         -DE/DX =    0.0                 !
 ! A14   A(5,4,13)             109.4426         -DE/DX =    0.0                 !
 ! A15   A(12,4,13)            108.0734         -DE/DX =    0.0                 !
 ! A16   A(4,5,6)              121.1911         -DE/DX =    0.0                 !
 ! A17   A(4,5,9)              102.7073         -DE/DX =    0.0                 !
 ! A18   A(4,5,14)             110.1068         -DE/DX =    0.0                 !
 ! A19   A(6,5,9)              103.8545         -DE/DX =    0.0                 !
 ! A20   A(6,5,14)             109.5599         -DE/DX =    0.0                 !
 ! A21   A(9,5,14)             108.3902         -DE/DX =    0.0                 !
 ! A22   A(5,6,7)              102.4913         -DE/DX =    0.0                 !
 ! A23   A(5,6,15)             112.066          -DE/DX =    0.0                 !
 ! A24   A(5,6,16)             111.3827         -DE/DX =    0.0                 !
 ! A25   A(7,6,15)             110.8552         -DE/DX =    0.0                 !
 ! A26   A(7,6,16)             113.2574         -DE/DX =    0.0                 !
 ! A27   A(15,6,16)            106.8909         -DE/DX =    0.0                 !
 ! A28   A(6,7,8)              110.5961         -DE/DX =    0.0                 !
 ! A29   A(6,7,17)             124.0613         -DE/DX =    0.0                 !
 ! A30   A(8,7,17)             125.2341         -DE/DX =    0.0                 !
 ! A31   A(7,8,9)              111.0239         -DE/DX =    0.0                 !
 ! A32   A(7,8,18)             130.0151         -DE/DX =    0.0                 !
 ! A33   A(9,8,18)             118.9426         -DE/DX =    0.0                 !
 ! A34   A(2,9,5)              114.417          -DE/DX =    0.0                 !
 ! A35   A(2,9,8)              129.4902         -DE/DX =    0.0                 !
 ! A36   A(5,9,8)              109.9494         -DE/DX =    0.0                 !
 ! D1    D(1,2,3,4)           -155.8326         -DE/DX =    0.0                 !
 ! D2    D(1,2,3,10)           -32.781          -DE/DX =    0.0                 !
 ! D3    D(1,2,3,11)            85.1849         -DE/DX =    0.0                 !
 ! D4    D(9,2,3,4)             23.6444         -DE/DX =    0.0                 !
 ! D5    D(9,2,3,10)           146.696          -DE/DX =    0.0                 !
 ! D6    D(9,2,3,11)           -95.3381         -DE/DX =    0.0                 !
 ! D7    D(1,2,9,5)            174.028          -DE/DX =    0.0                 !
 ! D8    D(1,2,9,8)             24.7523         -DE/DX =    0.0                 !
 ! D9    D(3,2,9,5)             -5.464          -DE/DX =    0.0                 !
 ! D10   D(3,2,9,8)           -154.7396         -DE/DX =    0.0                 !
 ! D11   D(2,3,4,5)            -32.0329         -DE/DX =    0.0                 !
 ! D12   D(2,3,4,12)          -154.3737         -DE/DX =    0.0                 !
 ! D13   D(2,3,4,13)            84.4325         -DE/DX =    0.0                 !
 ! D14   D(10,3,4,5)          -152.0241         -DE/DX =    0.0                 !
 ! D15   D(10,3,4,12)           85.6351         -DE/DX =    0.0                 !
 ! D16   D(10,3,4,13)          -35.5587         -DE/DX =    0.0                 !
 ! D17   D(11,3,4,5)            85.3262         -DE/DX =    0.0                 !
 ! D18   D(11,3,4,12)          -37.0146         -DE/DX =    0.0                 !
 ! D19   D(11,3,4,13)         -158.2084         -DE/DX =    0.0                 !
 ! D20   D(3,4,5,6)            143.5082         -DE/DX =    0.0                 !
 ! D21   D(3,4,5,9)             28.4546         -DE/DX =    0.0                 !
 ! D22   D(3,4,5,14)           -86.8194         -DE/DX =    0.0                 !
 ! D23   D(12,4,5,6)           -93.5641         -DE/DX =    0.0                 !
 ! D24   D(12,4,5,9)           151.3823         -DE/DX =    0.0                 !
 ! D25   D(12,4,5,14)           36.1083         -DE/DX =    0.0                 !
 ! D26   D(13,4,5,6)            26.7882         -DE/DX =    0.0                 !
 ! D27   D(13,4,5,9)           -88.2654         -DE/DX =    0.0                 !
 ! D28   D(13,4,5,14)          156.4606         -DE/DX =    0.0                 !
 ! D29   D(4,5,6,7)           -128.3102         -DE/DX =    0.0                 !
 ! D30   D(4,5,6,15)            -9.4114         -DE/DX =    0.0                 !
 ! D31   D(4,5,6,16)           110.2854         -DE/DX =    0.0                 !
 ! D32   D(9,5,6,7)            -13.8437         -DE/DX =    0.0                 !
 ! D33   D(9,5,6,15)           105.055          -DE/DX =    0.0                 !
 ! D34   D(9,5,6,16)          -135.2481         -DE/DX =    0.0                 !
 ! D35   D(14,5,6,7)           101.7806         -DE/DX =    0.0                 !
 ! D36   D(14,5,6,15)         -139.3207         -DE/DX =    0.0                 !
 ! D37   D(14,5,6,16)          -19.6238         -DE/DX =    0.0                 !
 ! D38   D(4,5,9,2)            -15.0128         -DE/DX =    0.0                 !
 ! D39   D(4,5,9,8)            140.1871         -DE/DX =    0.0                 !
 ! D40   D(6,5,9,2)           -142.0562         -DE/DX =    0.0                 !
 ! D41   D(6,5,9,8)             13.1436         -DE/DX =    0.0                 !
 ! D42   D(14,5,9,2)           101.4962         -DE/DX =    0.0                 !
 ! D43   D(14,5,9,8)          -103.304          -DE/DX =    0.0                 !
 ! D44   D(5,6,7,8)             10.8628         -DE/DX =    0.0                 !
 ! D45   D(5,6,7,17)          -172.755          -DE/DX =    0.0                 !
 ! D46   D(15,6,7,8)          -108.8834         -DE/DX =    0.0                 !
 ! D47   D(15,6,7,17)           67.4989         -DE/DX =    0.0                 !
 ! D48   D(16,6,7,8)           130.9738         -DE/DX =    0.0                 !
 ! D49   D(16,6,7,17)          -52.6439         -DE/DX =    0.0                 !
 ! D50   D(6,7,8,9)             -3.0799         -DE/DX =    0.0                 !
 ! D51   D(6,7,8,18)           175.3149         -DE/DX =    0.0                 !
 ! D52   D(17,7,8,9)          -179.4105         -DE/DX =    0.0                 !
 ! D53   D(17,7,8,18)           -1.0157         -DE/DX =    0.0                 !
 ! D54   D(7,8,9,2)            143.5717         -DE/DX =    0.0                 !
 ! D55   D(7,8,9,5)             -6.7645         -DE/DX =    0.0                 !
 ! D56   D(18,8,9,2)           -35.0235         -DE/DX =    0.0                 !
 ! D57   D(18,8,9,5)           174.6404         -DE/DX =    0.0                 !
 --------------------------------------------------------------------------------
 Lowest energy point so far.  Saving SCF results.
 Largest change from initial coordinates is atom   16       0.226 Angstoms.
 GradGradGradGradGradGradGradGradGradGradGradGradGradGradGradGradGradGrad

 Leave Link  103 at Tue Apr  9 11:55:14 2024, MaxMem=  7516192768 cpu:               0.6 elap:               0.0
 (Enter /public3/home/scg9909/software-scg9909/g16/l202.exe)
                          Input orientation:                          
 ---------------------------------------------------------------------
 Center     Atomic      Atomic             Coordinates (Angstroms)
 Number     Number       Type             X           Y           Z
 ---------------------------------------------------------------------
      1          8           0       -1.342594    2.531351   -0.382390
      2          6           0       -1.115355    1.335758   -0.341893
      3          6           0       -2.091021    0.192428   -0.025302
      4          6           0       -1.174786   -0.941186    0.481904
      5          6           0        0.121616   -0.719330   -0.316379
      6          6           0        1.510928   -0.968948    0.323514
      7          6           0        2.246083    0.331061    0.031669
      8          6           0        1.397400    1.259240   -0.427363
      9          7           0        0.103948    0.733842   -0.566383
     10          1           0       -2.840024    0.528342    0.694886
     11          1           0       -2.618043   -0.096549   -0.944186
     12          1           0       -1.593854   -1.941144    0.340260
     13          1           0       -0.972846   -0.805277    1.551100
     14          1           0        0.063327   -1.238266   -1.283442
     15          1           0        1.441177   -1.144824    1.408125
     16          1           0        1.998179   -1.847931   -0.110561
     17          1           0        3.297993    0.490882    0.231702
     18          1           0        1.567773    2.300649   -0.665260
 ---------------------------------------------------------------------
                    Distance matrix (angstroms):
                    1          2          3          4          5
     1  O    0.000000
     2  C    1.217670   0.000000
     3  C    2.481575   1.536020   0.000000
     4  C    3.582412   2.422116   1.543317   0.000000
     5  C    3.565837   2.398778   2.410765   1.538548   0.000000
     6  C    4.570885   3.556938   3.800593   2.690524   1.549827
     7  C    4.229814   3.528205   4.339693   3.677454   2.395375
     8  C    3.021234   2.515372   3.669989   3.504964   2.356837
     9  N    2.314600   1.378186   2.324605   2.353674   1.474627
    10  H    2.723025   2.168252   1.092024   2.231119   3.369073
    11  H    2.974600   2.161558   1.098001   2.197757   2.878842
    12  H    4.537463   3.381181   2.221022   1.093434   2.206092
    13  H    3.874040   2.861427   2.175035   1.096555   2.166267
    14  H    4.122926   2.983522   2.875937   2.176608   1.099046
    15  H    4.946675   3.968842   4.039725   2.782555   2.212736
    16  H    5.514777   4.459090   4.570765   3.352746   2.199452
    17  H    5.106435   4.529953   5.403388   4.703102   3.443019
    18  H    2.933168   2.869626   4.270938   4.398534   3.366506
                    6          7          8          9         10
     6  C    0.000000
     7  C    1.521726   0.000000
     8  C    2.354045   1.338839   0.000000
     9  N    2.381388   2.260231   1.402992   0.000000
    10  H    4.616339   5.132959   4.444031   3.209362   0.000000
    11  H    4.406422   4.979445   4.269549   2.870805   1.768141
    12  H    3.253478   4.472501   4.447393   3.295464   2.788738
    13  H    2.775408   3.736501   3.714109   2.830567   2.449081
    14  H    2.179539   2.992779   2.958066   2.098817   3.932446
    15  H    1.100989   2.172727   3.024972   3.035828   4.651545
    16  H    1.094735   2.197656   3.180536   3.234415   5.450104
    17  H    2.309358   1.082622   2.153369   3.301196   6.155583
    18  H    3.416310   2.196609   1.081737   2.146495   4.941633
                   11         12         13         14         15
    11  H    0.000000
    12  H    2.470080   0.000000
    13  H    3.071713   1.772563   0.000000
    14  H    2.934000   2.424189   3.048895   0.000000
    15  H    4.807236   3.314494   2.441974   3.025183   0.000000
    16  H    5.007172   3.621413   3.560230   2.343287   1.763808
    17  H    6.060303   5.464129   4.654128   3.968460   2.739940
    18  H    4.831709   5.385143   4.584078   3.894794   4.023212
                   16         17         18
    16  H    0.000000
    17  H    2.697537   0.000000
    18  H    4.207571   2.659598   0.000000
 Stoichiometry    C7H9NO
 Framework group  C1[X(C7H9NO)]
 Deg. of freedom    48
 Full point group                 C1      NOp   1
 RotChk:  IX=0 Diff= 2.11D-16
 Largest Abelian subgroup         C1      NOp   1
 Largest concise Abelian subgroup C1      NOp   1
                         Standard orientation:                         
 ---------------------------------------------------------------------
 Center     Atomic      Atomic             Coordinates (Angstroms)
 Number     Number       Type             X           Y           Z
 ---------------------------------------------------------------------
      1          8           0       -1.971737   -1.561856   -0.197895
      2          6           0       -1.334745   -0.549030    0.028261
      3          6           0       -1.822354    0.907272    0.000366
      4          6           0       -0.535643    1.719575   -0.257245
      5          6           0        0.547600    0.879395    0.441193
      6          6           0        1.971716    0.749081   -0.156197
      7          6           0        2.180955   -0.757961   -0.182537
      8          6           0        1.032816   -1.397402    0.073166
      9          7           0        0.002492   -0.488137    0.356110
     10          1           0       -2.596394    1.028175   -0.760398
     11          1           0       -2.268204    1.156805    0.972250
     12          1           0       -0.582205    2.746165    0.116309
     13          1           0       -0.330038    1.758242   -1.333657
     14          1           0        0.617636    1.159388    1.501665
     15          1           0        2.034778    1.171354   -1.171030
     16          1           0        2.710684    1.277485    0.454672
     17          1           0        3.118661   -1.235589   -0.436798
     18          1           0        0.809459   -2.455799    0.065332
 ---------------------------------------------------------------------
 Rotational constants (GHZ):           2.8748966           1.7085537           1.1377130
 Leave Link  202 at Tue Apr  9 11:55:14 2024, MaxMem=  7516192768 cpu:               0.1 elap:               0.0
 (Enter /public3/home/scg9909/software-scg9909/g16/l601.exe)
 Copying SCF densities to generalized density rwf, IOpCl= 0 IROHF=0.

 **********************************************************************

            Population analysis using the SCF Density.

 **********************************************************************

 Orbital symmetries:
       Occupied  (A) (A) (A) (A) (A) (A) (A) (A) (A) (A) (A) (A)
                 (A) (A) (A) (A) (A) (A) (A) (A) (A) (A) (A) (A)
                 (A) (A) (A) (A) (A) (A) (A) (A) (A)
       Virtual   (A) (A) (A) (A) (A) (A) (A) (A) (A) (A) (A) (A)
                 (A) (A) (A) (A) (A) (A) (A) (A) (A) (A) (A) (A)
                 (A) (A) (A) (A) (A) (A) (A) (A) (A) (A) (A) (A)
                 (A) (A) (A) (A) (A) (A) (A) (A) (A) (A) (A) (A)
                 (A) (A) (A) (A) (A) (A) (A) (A) (A) (A) (A) (A)
                 (A) (A) (A) (A) (A) (A) (A) (A) (A) (A) (A) (A)
                 (A) (A) (A) (A) (A) (A) (A) (A) (A) (A) (A) (A)
                 (A) (A) (A) (A) (A) (A) (A) (A) (A) (A) (A) (A)
                 (A) (A) (A) (A) (A) (A) (A) (A) (A) (A) (A) (A)
                 (A) (A) (A) (A) (A) (A) (A) (A) (A) (A) (A) (A)
 The electronic state is 1-A.
 Alpha  occ. eigenvalues --  -19.11077 -14.36342 -10.28187 -10.23522 -10.22386
 Alpha  occ. eigenvalues --  -10.20239 -10.20196 -10.19703 -10.18909  -1.03110
 Alpha  occ. eigenvalues --   -0.96294  -0.81687  -0.78661  -0.71759  -0.67126
 Alpha  occ. eigenvalues --   -0.60743  -0.59128  -0.54212  -0.50744  -0.46634
 Alpha  occ. eigenvalues --   -0.45422  -0.43440  -0.42811  -0.41457  -0.39241
 Alpha  occ. eigenvalues --   -0.38888  -0.38213  -0.37958  -0.34487  -0.33786
 Alpha  occ. eigenvalues --   -0.30873  -0.24430  -0.20969
 Alpha virt. eigenvalues --    0.00089   0.04956   0.08415   0.10789   0.11624
 Alpha virt. eigenvalues --    0.12592   0.13732   0.15405   0.16476   0.16706
 Alpha virt. eigenvalues --    0.17621   0.19387   0.19821   0.22193   0.24079
 Alpha virt. eigenvalues --    0.26280   0.28179   0.32404   0.35061   0.37647
 Alpha virt. eigenvalues --    0.41928   0.48901   0.51701   0.52492   0.53965
 Alpha virt. eigenvalues --    0.54104   0.56661   0.57867   0.59097   0.61117
 Alpha virt. eigenvalues --    0.62774   0.63143   0.65073   0.66308   0.68575
 Alpha virt. eigenvalues --    0.71276   0.73139   0.74076   0.78817   0.79925
 Alpha virt. eigenvalues --    0.83174   0.83718   0.84866   0.85112   0.86849
 Alpha virt. eigenvalues --    0.87582   0.89094   0.90950   0.92422   0.92898
 Alpha virt. eigenvalues --    0.94283   0.95709   0.96867   1.03940   1.05442
 Alpha virt. eigenvalues --    1.07445   1.10078   1.13770   1.17924   1.25799
 Alpha virt. eigenvalues --    1.32658   1.33885   1.35978   1.43830   1.46277
 Alpha virt. eigenvalues --    1.50107   1.56297   1.59285   1.61536   1.71237
 Alpha virt. eigenvalues --    1.76486   1.77660   1.78956   1.79548   1.79905
 Alpha virt. eigenvalues --    1.82491   1.83990   1.87198   1.90289   1.93670
 Alpha virt. eigenvalues --    1.94702   1.97776   1.99671   2.01130   2.05683
 Alpha virt. eigenvalues --    2.06566   2.09182   2.11835   2.16869   2.20004
 Alpha virt. eigenvalues --    2.20879   2.27587   2.32290   2.35331   2.36704
 Alpha virt. eigenvalues --    2.40170   2.47552   2.47714   2.50442   2.52576
 Alpha virt. eigenvalues --    2.55623   2.60739   2.68916   2.70679   2.74016
 Alpha virt. eigenvalues --    2.75051   2.83076   2.89429   3.00100   3.06993
 Alpha virt. eigenvalues --    3.21192   4.03834   4.08736   4.12888   4.16868
 Alpha virt. eigenvalues --    4.26302   4.35160   4.48441   4.65192   4.66922
          Condensed to atoms (all electrons):
               1          2          3          4          5          6
     1  O    8.032472   0.616441  -0.072778   0.001966   0.003529  -0.000150
     2  C    0.616441   4.368194   0.330695  -0.042419  -0.048502   0.001630
     3  C   -0.072778   0.330695   5.340311   0.319001  -0.047859   0.003018
     4  C    0.001966  -0.042419   0.319001   5.087937   0.366343  -0.026170
     5  C    0.003529  -0.048502  -0.047859   0.366343   4.854562   0.371285
     6  C   -0.000150   0.001630   0.003018  -0.026170   0.371285   5.093026
     7  C    0.000671   0.004676   0.000155   0.000749  -0.040411   0.364071
     8  C    0.005553  -0.024951   0.010402   0.004951  -0.066047  -0.042017
     9  N   -0.092512   0.261252  -0.158279  -0.038547   0.292766  -0.077678
    10  H    0.002091  -0.024671   0.363788  -0.025685   0.004211  -0.000047
    11  H    0.000820  -0.021127   0.353276  -0.032890   0.000691  -0.000074
    12  H   -0.000050   0.003274  -0.025554   0.360723  -0.027948   0.000047
    13  H    0.000009   0.002617  -0.038579   0.372266  -0.037784  -0.007375
    14  H   -0.000031   0.001708  -0.003442  -0.043340   0.373894  -0.047648
    15  H   -0.000004   0.000573  -0.000067  -0.006715  -0.032848   0.354729
    16  H    0.000001  -0.000090  -0.000069   0.001934  -0.027774   0.366625
    17  H    0.000001  -0.000090   0.000015  -0.000090   0.004290  -0.040988
    18  H    0.003575   0.000173   0.000149  -0.000219   0.005067   0.005077
               7          8          9         10         11         12
     1  O    0.000671   0.005553  -0.092512   0.002091   0.000820  -0.000050
     2  C    0.004676  -0.024951   0.261252  -0.024671  -0.021127   0.003274
     3  C    0.000155   0.010402  -0.158279   0.363788   0.353276  -0.025554
     4  C    0.000749   0.004951  -0.038547  -0.025685  -0.032890   0.360723
     5  C   -0.040411  -0.066047   0.292766   0.004211   0.000691  -0.027948
     6  C    0.364071  -0.042017  -0.077678  -0.000047  -0.000074   0.000047
     7  C    4.997346   0.655295  -0.053849   0.000022  -0.000022  -0.000006
     8  C    0.655295   4.739770   0.288811  -0.000124  -0.000128  -0.000197
     9  N   -0.053849   0.288811   7.105639   0.004161  -0.000222   0.003930
    10  H    0.000022  -0.000124   0.004161   0.533822  -0.026920   0.000564
    11  H   -0.000022  -0.000128  -0.000222  -0.026920   0.553144  -0.005434
    12  H   -0.000006  -0.000197   0.003930   0.000564  -0.005434   0.576006
    13  H   -0.000429   0.000496   0.000177  -0.006277   0.004804  -0.031849
    14  H    0.001725   0.004748  -0.052829  -0.000245   0.002781  -0.002626
    15  H   -0.035251  -0.002877   0.004536  -0.000029   0.000017   0.000563
    16  H   -0.028589   0.000437   0.003634   0.000002  -0.000000  -0.000154
    17  H    0.368530  -0.035581   0.004483  -0.000000  -0.000000   0.000003
    18  H   -0.045471   0.373529  -0.046121  -0.000002  -0.000000   0.000004
              13         14         15         16         17         18
     1  O    0.000009  -0.000031  -0.000004   0.000001   0.000001   0.003575
     2  C    0.002617   0.001708   0.000573  -0.000090  -0.000090   0.000173
     3  C   -0.038579  -0.003442  -0.000067  -0.000069   0.000015   0.000149
     4  C    0.372266  -0.043340  -0.006715   0.001934  -0.000090  -0.000219
     5  C   -0.037784   0.373894  -0.032848  -0.027774   0.004290   0.005067
     6  C   -0.007375  -0.047648   0.354729   0.366625  -0.040988   0.005077
     7  C   -0.000429   0.001725  -0.035251  -0.028589   0.368530  -0.045471
     8  C    0.000496   0.004748  -0.002877   0.000437  -0.035581   0.373529
     9  N    0.000177  -0.052829   0.004536   0.003634   0.004483  -0.046121
    10  H   -0.006277  -0.000245  -0.000029   0.000002  -0.000000  -0.000002
    11  H    0.004804   0.002781   0.000017  -0.000000  -0.000000  -0.000000
    12  H   -0.031849  -0.002626   0.000563  -0.000154   0.000003   0.000004
    13  H    0.575397   0.005587   0.007153   0.000017  -0.000022   0.000004
    14  H    0.005587   0.611556   0.005628  -0.007187  -0.000136  -0.000101
    15  H    0.007153   0.005628   0.591157  -0.039418   0.000663  -0.000101
    16  H    0.000017  -0.007187  -0.039418   0.576639  -0.000469  -0.000127
    17  H   -0.000022  -0.000136   0.000663  -0.000469   0.560515  -0.001859
    18  H    0.000004  -0.000101  -0.000101  -0.000127  -0.001859   0.532691
 Mulliken charges:
               1
     1  O   -0.501604
     2  C    0.570616
     3  C   -0.374181
     4  C   -0.299796
     5  C    0.052535
     6  C   -0.317363
     7  C   -0.189212
     8  C    0.087933
     9  N   -0.449352
    10  H    0.175339
    11  H    0.171284
    12  H    0.148704
    13  H    0.153789
    14  H    0.149958
    15  H    0.152293
    16  H    0.154589
    17  H    0.140735
    18  H    0.173732
 Sum of Mulliken charges =  -0.00000
 Mulliken charges with hydrogens summed into heavy atoms:
               1
     1  O   -0.501604
     2  C    0.570616
     3  C   -0.027558
     4  C    0.002698
     5  C    0.202493
     6  C   -0.010481
     7  C   -0.048477
     8  C    0.261665
     9  N   -0.449352
 Electronic spatial extent (au):  <R**2>=           1056.3783
 Charge=             -0.0000 electrons
 Dipole moment (field-independent basis, Debye):
    X=              2.4170    Y=              2.9943    Z=              0.2637  Tot=              3.8571
 Quadrupole moment (field-independent basis, Debye-Ang):
   XX=            -54.7435   YY=            -53.4063   ZZ=            -52.5586
   XY=             -6.5549   XZ=             -1.3017   YZ=             -0.0921
 Traceless Quadrupole moment (field-independent basis, Debye-Ang):
   XX=             -1.1741   YY=              0.1632   ZZ=              1.0109
   XY=             -6.5549   XZ=             -1.3017   YZ=             -0.0921
 Octapole moment (field-independent basis, Debye-Ang**2):
  XXX=              9.2805  YYY=             -3.2198  ZZZ=             -0.3920  XYY=              9.6752
  XXY=             11.5015  XXZ=              0.0238  XZZ=             -5.0548  YZZ=              1.6444
  YYZ=              1.8838  XYZ=              2.5391
 Hexadecapole moment (field-independent basis, Debye-Ang**3):
 XXXX=           -790.6898 YYYY=           -476.1417 ZZZZ=            -96.8497 XXXY=            -24.5920
 XXXZ=             -7.4319 YYYX=            -13.1460 YYYZ=              1.7898 ZZZX=              1.2370
 ZZZY=              0.7987 XXYY=           -229.2965 XXZZ=           -147.9351 YYZZ=            -98.2681
 XXYZ=              1.2907 YYXZ=             -2.8871 ZZXY=              5.4274
 N-N= 4.484458841854D+02 E-N=-1.831667945858D+03  KE= 3.983818016967D+02
 No NMR shielding tensors so no spin-rotation constants.
 Leave Link  601 at Tue Apr  9 11:55:14 2024, MaxMem=  7516192768 cpu:               1.7 elap:               0.1
 (Enter /public3/home/scg9909/software-scg9909/g16/l9999.exe)
 Unable to Open any file for archive entry.
 1\1\GINC-G0606\FOpt\RB3LYP\6-31G(d)\C7H9N1O1\SCG9909\09-Apr-2024\0\\#p
  opt freq b3lyp/6-31g* em=gd3bj\\$$$$Singlemol####0????\\0,1\O,-1.3425
 94187,2.5313512996,-0.3823901622\C,-1.1153549679,1.3357583737,-0.34189
 32849\C,-2.0910211331,0.1924282253,-0.0253023748\C,-1.1747855384,-0.94
 11855563,0.4819036936\C,0.1216155806,-0.7193299413,-0.3163790351\C,1.5
 109284553,-0.9689483357,0.323514428\C,2.2460831901,0.3310610843,0.0316
 686974\C,1.3973995325,1.259240026,-0.4273631907\N,0.1039476789,0.73384
 23272,-0.5663834883\H,-2.8400240255,0.5283422802,0.6948864805\H,-2.618
 0434394,-0.0965491816,-0.9441855589\H,-1.5938541312,-1.941143828,0.340
 2601171\H,-0.9728456924,-0.805276664,1.5511001963\H,0.0633269108,-1.23
 82656716,-1.2834417246\H,1.4411767271,-1.1448240982,1.4081249977\H,1.9
 981790198,-1.8479307671,-0.1105614517\H,3.297993374,0.490881578,0.2317
 018758\H,1.5677726457,2.3006488496,-0.6652602149\\Version=ES64L-G16Rev
 C.01\State=1-A\HF=-402.1614458\RMSD=2.486e-09\RMSF=9.924e-06\Dipole=0.
 4638754,-1.4287657,0.2150355\Quadrupole=2.549876,-3.2791216,0.7292456,
 4.0346527,-0.0761469,0.4302003\PG=C01 [X(C7H9N1O1)]\\@
 The archive entry for this job was punched.


 COMMON SENSE IS NOT SO COMMON.   -- VOLTAIRE
 Leave Link 9999 at Tue Apr  9 11:55:14 2024, MaxMem=  7516192768 cpu:               0.4 elap:               0.0
 Job cpu time:       0 days  0 hours 23 minutes  5.6 seconds.
 Elapsed time:       0 days  0 hours  0 minutes 50.9 seconds.
 File lengths (MBytes):  RWF=     19 Int=      0 D2E=      0 Chk=      3 Scr=      1
 Normal termination of Gaussian 16 at Tue Apr  9 11:55:14 2024.
 (Enter /public3/home/scg9909/software-scg9909/g16/l1.exe)
 Link1:  Proceeding to internal job step number  2.
 --------------------------------------------------------------------
 #P Geom=AllCheck Guess=TCheck SCRF=Check GenChk RB3LYP/6-31G(d) Freq
 --------------------------------------------------------------------
 1/10=4,29=7,30=1,38=1,40=1/1,3;
 2/12=2,40=1/2;
 3/5=1,6=6,7=1,11=2,14=-4,25=1,30=1,70=2,71=2,74=-5,116=1,124=41,140=1/1,2,3;
 4/5=101/1;
 5/5=2,38=6,98=1/2;
 8/6=4,10=90,11=11/1;
 11/6=1,8=1,9=11,15=111,16=1/1,2,10;
 10/6=1/2;
 6/7=2,8=2,9=2,10=2,28=1/1;
 7/8=1,10=1,25=1/1,2,3,16;
 1/10=4,30=1/3;
 99//99;
 Leave Link    1 at Tue Apr  9 11:55:14 2024, MaxMem=  7516192768 cpu:               0.5 elap:               0.0
 (Enter /public3/home/scg9909/software-scg9909/g16/l101.exe)
 Structure from the checkpoint file:  "/public3/home/scg9909/tmp/Gau-65552.chk"
 ----------------------
 $$$$Singlemol####0????
 ----------------------
 Charge =  0 Multiplicity = 1
 Redundant internal coordinates found in file.  (old form).
 O,0,-1.342594187,2.5313512996,-0.3823901622
 C,0,-1.1153549679,1.3357583737,-0.3418932849
 C,0,-2.0910211331,0.1924282253,-0.0253023748
 C,0,-1.1747855384,-0.9411855563,0.4819036936
 C,0,0.1216155806,-0.7193299413,-0.3163790351
 C,0,1.5109284553,-0.9689483357,0.323514428
 C,0,2.2460831901,0.3310610843,0.0316686974
 C,0,1.3973995325,1.259240026,-0.4273631907
 N,0,0.1039476789,0.7338423272,-0.5663834883
 H,0,-2.8400240255,0.5283422802,0.6948864805
 H,0,-2.6180434394,-0.0965491816,-0.9441855589
 H,0,-1.5938541312,-1.941143828,0.3402601171
 H,0,-0.9728456924,-0.805276664,1.5511001963
 H,0,0.0633269108,-1.2382656716,-1.2834417246
 H,0,1.4411767271,-1.1448240982,1.4081249977
 H,0,1.9981790198,-1.8479307671,-0.1105614517
 H,0,3.297993374,0.490881578,0.2317018758
 H,0,1.5677726457,2.3006488496,-0.6652602149
 Recover connectivity data from disk.
 ITRead=  0  0  0  0  0  0  0  0  0  0  0  0  0  0  0  0  0  0
 MicOpt= -1 -1 -1 -1 -1 -1 -1 -1 -1 -1 -1 -1 -1 -1 -1 -1 -1 -1
 NAtoms=     18 NQM=       18 NQMF=       0 NMMI=      0 NMMIF=      0
                NMic=       0 NMicF=      0.
                    Isotopes and Nuclear Properties:
 (Nuclear quadrupole moments (NQMom) in fm**2, nuclear magnetic moments (NMagM)
  in nuclear magnetons)

  Atom         1           2           3           4           5           6           7           8           9          10
 IAtWgt=          16          12          12          12          12          12          12          12          14           1
 AtmWgt=  15.9949146  12.0000000  12.0000000  12.0000000  12.0000000  12.0000000  12.0000000  12.0000000  14.0030740   1.0078250
 NucSpn=           0           0           0           0           0           0           0           0           2           1
 AtZEff=   5.6000000   3.6000000   3.6000000   3.6000000   3.6000000   3.6000000   3.6000000   3.6000000   4.5500000   1.0000000
 NQMom=    0.0000000   0.0000000   0.0000000   0.0000000   0.0000000   0.0000000   0.0000000   0.0000000   2.0440000   0.0000000
 NMagM=    0.0000000   0.0000000   0.0000000   0.0000000   0.0000000   0.0000000   0.0000000   0.0000000   0.4037610   2.7928460
 AtZNuc=   8.0000000   6.0000000   6.0000000   6.0000000   6.0000000   6.0000000   6.0000000   6.0000000   7.0000000   1.0000000

  Atom        11          12          13          14          15          16          17          18
 IAtWgt=           1           1           1           1           1           1           1           1
 AtmWgt=   1.0078250   1.0078250   1.0078250   1.0078250   1.0078250   1.0078250   1.0078250   1.0078250
 NucSpn=           1           1           1           1           1           1           1           1
 AtZEff=   1.0000000   1.0000000   1.0000000   1.0000000   1.0000000   1.0000000   1.0000000   1.0000000
 NQMom=    0.0000000   0.0000000   0.0000000   0.0000000   0.0000000   0.0000000   0.0000000   0.0000000
 NMagM=    2.7928460   2.7928460   2.7928460   2.7928460   2.7928460   2.7928460   2.7928460   2.7928460
 AtZNuc=   1.0000000   1.0000000   1.0000000   1.0000000   1.0000000   1.0000000   1.0000000   1.0000000
 Leave Link  101 at Tue Apr  9 11:55:14 2024, MaxMem=  7516192768 cpu:               3.7 elap:               0.1
 (Enter /public3/home/scg9909/software-scg9909/g16/l103.exe)

 GradGradGradGradGradGradGradGradGradGradGradGradGradGradGradGradGradGrad
 Berny optimization.
 Initialization pass.
                           ----------------------------
                           !    Initial Parameters    !
                           ! (Angstroms and Degrees)  !
 --------------------------                            --------------------------
 ! Name  Definition              Value          Derivative Info.                !
 --------------------------------------------------------------------------------
 ! R1    R(1,2)                  1.2177         calculate D2E/DX2 analytically  !
 ! R2    R(2,3)                  1.536          calculate D2E/DX2 analytically  !
 ! R3    R(2,9)                  1.3782         calculate D2E/DX2 analytically  !
 ! R4    R(3,4)                  1.5433         calculate D2E/DX2 analytically  !
 ! R5    R(3,10)                 1.092          calculate D2E/DX2 analytically  !
 ! R6    R(3,11)                 1.098          calculate D2E/DX2 analytically  !
 ! R7    R(4,5)                  1.5385         calculate D2E/DX2 analytically  !
 ! R8    R(4,12)                 1.0934         calculate D2E/DX2 analytically  !
 ! R9    R(4,13)                 1.0966         calculate D2E/DX2 analytically  !
 ! R10   R(5,6)                  1.5498         calculate D2E/DX2 analytically  !
 ! R11   R(5,9)                  1.4746         calculate D2E/DX2 analytically  !
 ! R12   R(5,14)                 1.099          calculate D2E/DX2 analytically  !
 ! R13   R(6,7)                  1.5217         calculate D2E/DX2 analytically  !
 ! R14   R(6,15)                 1.101          calculate D2E/DX2 analytically  !
 ! R15   R(6,16)                 1.0947         calculate D2E/DX2 analytically  !
 ! R16   R(7,8)                  1.3388         calculate D2E/DX2 analytically  !
 ! R17   R(7,17)                 1.0826         calculate D2E/DX2 analytically  !
 ! R18   R(8,9)                  1.403          calculate D2E/DX2 analytically  !
 ! R19   R(8,18)                 1.0817         calculate D2E/DX2 analytically  !
 ! A1    A(1,2,3)              128.2553         calculate D2E/DX2 analytically  !
 ! A2    A(1,2,9)              126.0516         calculate D2E/DX2 analytically  !
 ! A3    A(3,2,9)              105.6909         calculate D2E/DX2 analytically  !
 ! A4    A(2,3,4)              103.7321         calculate D2E/DX2 analytically  !
 ! A5    A(2,3,10)             110.0373         calculate D2E/DX2 analytically  !
 ! A6    A(2,3,11)             109.1652         calculate D2E/DX2 analytically  !
 ! A7    A(4,3,10)             114.6075         calculate D2E/DX2 analytically  !
 ! A8    A(4,3,11)             111.5106         calculate D2E/DX2 analytically  !
 ! A9    A(10,3,11)            107.6775         calculate D2E/DX2 analytically  !
 ! A10   A(3,4,5)              102.9326         calculate D2E/DX2 analytically  !
 ! A11   A(3,4,12)             113.6802         calculate D2E/DX2 analytically  !
 ! A12   A(3,4,13)             109.8001         calculate D2E/DX2 analytically  !
 ! A13   A(5,4,12)             112.8051         calculate D2E/DX2 analytically  !
 ! A14   A(5,4,13)             109.4426         calculate D2E/DX2 analytically  !
 ! A15   A(12,4,13)            108.0734         calculate D2E/DX2 analytically  !
 ! A16   A(4,5,6)              121.1911         calculate D2E/DX2 analytically  !
 ! A17   A(4,5,9)              102.7073         calculate D2E/DX2 analytically  !
 ! A18   A(4,5,14)             110.1068         calculate D2E/DX2 analytically  !
 ! A19   A(6,5,9)              103.8545         calculate D2E/DX2 analytically  !
 ! A20   A(6,5,14)             109.5599         calculate D2E/DX2 analytically  !
 ! A21   A(9,5,14)             108.3902         calculate D2E/DX2 analytically  !
 ! A22   A(5,6,7)              102.4913         calculate D2E/DX2 analytically  !
 ! A23   A(5,6,15)             112.066          calculate D2E/DX2 analytically  !
 ! A24   A(5,6,16)             111.3827         calculate D2E/DX2 analytically  !
 ! A25   A(7,6,15)             110.8552         calculate D2E/DX2 analytically  !
 ! A26   A(7,6,16)             113.2574         calculate D2E/DX2 analytically  !
 ! A27   A(15,6,16)            106.8909         calculate D2E/DX2 analytically  !
 ! A28   A(6,7,8)              110.5961         calculate D2E/DX2 analytically  !
 ! A29   A(6,7,17)             124.0613         calculate D2E/DX2 analytically  !
 ! A30   A(8,7,17)             125.2341         calculate D2E/DX2 analytically  !
 ! A31   A(7,8,9)              111.0239         calculate D2E/DX2 analytically  !
 ! A32   A(7,8,18)             130.0151         calculate D2E/DX2 analytically  !
 ! A33   A(9,8,18)             118.9426         calculate D2E/DX2 analytically  !
 ! A34   A(2,9,5)              114.417          calculate D2E/DX2 analytically  !
 ! A35   A(2,9,8)              129.4902         calculate D2E/DX2 analytically  !
 ! A36   A(5,9,8)              109.9494         calculate D2E/DX2 analytically  !
 ! D1    D(1,2,3,4)           -155.8326         calculate D2E/DX2 analytically  !
 ! D2    D(1,2,3,10)           -32.781          calculate D2E/DX2 analytically  !
 ! D3    D(1,2,3,11)            85.1849         calculate D2E/DX2 analytically  !
 ! D4    D(9,2,3,4)             23.6444         calculate D2E/DX2 analytically  !
 ! D5    D(9,2,3,10)           146.696          calculate D2E/DX2 analytically  !
 ! D6    D(9,2,3,11)           -95.3381         calculate D2E/DX2 analytically  !
 ! D7    D(1,2,9,5)            174.028          calculate D2E/DX2 analytically  !
 ! D8    D(1,2,9,8)             24.7523         calculate D2E/DX2 analytically  !
 ! D9    D(3,2,9,5)             -5.464          calculate D2E/DX2 analytically  !
 ! D10   D(3,2,9,8)           -154.7396         calculate D2E/DX2 analytically  !
 ! D11   D(2,3,4,5)            -32.0329         calculate D2E/DX2 analytically  !
 ! D12   D(2,3,4,12)          -154.3737         calculate D2E/DX2 analytically  !
 ! D13   D(2,3,4,13)            84.4325         calculate D2E/DX2 analytically  !
 ! D14   D(10,3,4,5)          -152.0241         calculate D2E/DX2 analytically  !
 ! D15   D(10,3,4,12)           85.6351         calculate D2E/DX2 analytically  !
 ! D16   D(10,3,4,13)          -35.5587         calculate D2E/DX2 analytically  !
 ! D17   D(11,3,4,5)            85.3262         calculate D2E/DX2 analytically  !
 ! D18   D(11,3,4,12)          -37.0146         calculate D2E/DX2 analytically  !
 ! D19   D(11,3,4,13)         -158.2084         calculate D2E/DX2 analytically  !
 ! D20   D(3,4,5,6)            143.5082         calculate D2E/DX2 analytically  !
 ! D21   D(3,4,5,9)             28.4546         calculate D2E/DX2 analytically  !
 ! D22   D(3,4,5,14)           -86.8194         calculate D2E/DX2 analytically  !
 ! D23   D(12,4,5,6)           -93.5641         calculate D2E/DX2 analytically  !
 ! D24   D(12,4,5,9)           151.3823         calculate D2E/DX2 analytically  !
 ! D25   D(12,4,5,14)           36.1083         calculate D2E/DX2 analytically  !
 ! D26   D(13,4,5,6)            26.7882         calculate D2E/DX2 analytically  !
 ! D27   D(13,4,5,9)           -88.2654         calculate D2E/DX2 analytically  !
 ! D28   D(13,4,5,14)          156.4606         calculate D2E/DX2 analytically  !
 ! D29   D(4,5,6,7)           -128.3102         calculate D2E/DX2 analytically  !
 ! D30   D(4,5,6,15)            -9.4114         calculate D2E/DX2 analytically  !
 ! D31   D(4,5,6,16)           110.2854         calculate D2E/DX2 analytically  !
 ! D32   D(9,5,6,7)            -13.8437         calculate D2E/DX2 analytically  !
 ! D33   D(9,5,6,15)           105.055          calculate D2E/DX2 analytically  !
 ! D34   D(9,5,6,16)          -135.2481         calculate D2E/DX2 analytically  !
 ! D35   D(14,5,6,7)           101.7806         calculate D2E/DX2 analytically  !
 ! D36   D(14,5,6,15)         -139.3207         calculate D2E/DX2 analytically  !
 ! D37   D(14,5,6,16)          -19.6238         calculate D2E/DX2 analytically  !
 ! D38   D(4,5,9,2)            -15.0128         calculate D2E/DX2 analytically  !
 ! D39   D(4,5,9,8)            140.1871         calculate D2E/DX2 analytically  !
 ! D40   D(6,5,9,2)           -142.0562         calculate D2E/DX2 analytically  !
 ! D41   D(6,5,9,8)             13.1436         calculate D2E/DX2 analytically  !
 ! D42   D(14,5,9,2)           101.4962         calculate D2E/DX2 analytically  !
 ! D43   D(14,5,9,8)          -103.304          calculate D2E/DX2 analytically  !
 ! D44   D(5,6,7,8)             10.8628         calculate D2E/DX2 analytically  !
 ! D45   D(5,6,7,17)          -172.755          calculate D2E/DX2 analytically  !
 ! D46   D(15,6,7,8)          -108.8834         calculate D2E/DX2 analytically  !
 ! D47   D(15,6,7,17)           67.4989         calculate D2E/DX2 analytically  !
 ! D48   D(16,6,7,8)           130.9738         calculate D2E/DX2 analytically  !
 ! D49   D(16,6,7,17)          -52.6439         calculate D2E/DX2 analytically  !
 ! D50   D(6,7,8,9)             -3.0799         calculate D2E/DX2 analytically  !
 ! D51   D(6,7,8,18)           175.3149         calculate D2E/DX2 analytically  !
 ! D52   D(17,7,8,9)          -179.4105         calculate D2E/DX2 analytically  !
 ! D53   D(17,7,8,18)           -1.0157         calculate D2E/DX2 analytically  !
 ! D54   D(7,8,9,2)            143.5717         calculate D2E/DX2 analytically  !
 ! D55   D(7,8,9,5)             -6.7645         calculate D2E/DX2 analytically  !
 ! D56   D(18,8,9,2)           -35.0235         calculate D2E/DX2 analytically  !
 ! D57   D(18,8,9,5)           174.6404         calculate D2E/DX2 analytically  !
 --------------------------------------------------------------------------------
 Trust Radius=3.00D-01 FncErr=1.00D-07 GrdErr=1.00D-07 EigMax=2.50D+02 EigMin=1.00D-04
 Number of steps in this run=      2 maximum allowed number of steps=      2.
 GradGradGradGradGradGradGradGradGradGradGradGradGradGradGradGradGradGrad

 Leave Link  103 at Tue Apr  9 11:55:14 2024, MaxMem=  7516192768 cpu:               0.1 elap:               0.0
 (Enter /public3/home/scg9909/software-scg9909/g16/l202.exe)
                          Input orientation:                          
 ---------------------------------------------------------------------
 Center     Atomic      Atomic             Coordinates (Angstroms)
 Number     Number       Type             X           Y           Z
 ---------------------------------------------------------------------
      1          8           0       -1.342594    2.531351   -0.382390
      2          6           0       -1.115355    1.335758   -0.341893
      3          6           0       -2.091021    0.192428   -0.025302
      4          6           0       -1.174786   -0.941186    0.481904
      5          6           0        0.121616   -0.719330   -0.316379
      6          6           0        1.510928   -0.968948    0.323514
      7          6           0        2.246083    0.331061    0.031669
      8          6           0        1.397400    1.259240   -0.427363
      9          7           0        0.103948    0.733842   -0.566383
     10          1           0       -2.840024    0.528342    0.694886
     11          1           0       -2.618043   -0.096549   -0.944186
     12          1           0       -1.593854   -1.941144    0.340260
     13          1           0       -0.972846   -0.805277    1.551100
     14          1           0        0.063327   -1.238266   -1.283442
     15          1           0        1.441177   -1.144824    1.408125
     16          1           0        1.998179   -1.847931   -0.110561
     17          1           0        3.297993    0.490882    0.231702
     18          1           0        1.567773    2.300649   -0.665260
 ---------------------------------------------------------------------
                    Distance matrix (angstroms):
                    1          2          3          4          5
     1  O    0.000000
     2  C    1.217670   0.000000
     3  C    2.481575   1.536020   0.000000
     4  C    3.582412   2.422116   1.543317   0.000000
     5  C    3.565837   2.398778   2.410765   1.538548   0.000000
     6  C    4.570885   3.556938   3.800593   2.690524   1.549827
     7  C    4.229814   3.528205   4.339693   3.677454   2.395375
     8  C    3.021234   2.515372   3.669989   3.504964   2.356837
     9  N    2.314600   1.378186   2.324605   2.353674   1.474627
    10  H    2.723025   2.168252   1.092024   2.231119   3.369073
    11  H    2.974600   2.161558   1.098001   2.197757   2.878842
    12  H    4.537463   3.381181   2.221022   1.093434   2.206092
    13  H    3.874040   2.861427   2.175035   1.096555   2.166267
    14  H    4.122926   2.983522   2.875937   2.176608   1.099046
    15  H    4.946675   3.968842   4.039725   2.782555   2.212736
    16  H    5.514777   4.459090   4.570765   3.352746   2.199452
    17  H    5.106435   4.529953   5.403388   4.703102   3.443019
    18  H    2.933168   2.869626   4.270938   4.398534   3.366506
                    6          7          8          9         10
     6  C    0.000000
     7  C    1.521726   0.000000
     8  C    2.354045   1.338839   0.000000
     9  N    2.381388   2.260231   1.402992   0.000000
    10  H    4.616339   5.132959   4.444031   3.209362   0.000000
    11  H    4.406422   4.979445   4.269549   2.870805   1.768141
    12  H    3.253478   4.472501   4.447393   3.295464   2.788738
    13  H    2.775408   3.736501   3.714109   2.830567   2.449081
    14  H    2.179539   2.992779   2.958066   2.098817   3.932446
    15  H    1.100989   2.172727   3.024972   3.035828   4.651545
    16  H    1.094735   2.197656   3.180536   3.234415   5.450104
    17  H    2.309358   1.082622   2.153369   3.301196   6.155583
    18  H    3.416310   2.196609   1.081737   2.146495   4.941633
                   11         12         13         14         15
    11  H    0.000000
    12  H    2.470080   0.000000
    13  H    3.071713   1.772563   0.000000
    14  H    2.934000   2.424189   3.048895   0.000000
    15  H    4.807236   3.314494   2.441974   3.025183   0.000000
    16  H    5.007172   3.621413   3.560230   2.343287   1.763808
    17  H    6.060303   5.464129   4.654128   3.968460   2.739940
    18  H    4.831709   5.385143   4.584078   3.894794   4.023212
                   16         17         18
    16  H    0.000000
    17  H    2.697537   0.000000
    18  H    4.207571   2.659598   0.000000
 Stoichiometry    C7H9NO
 Framework group  C1[X(C7H9NO)]
 Deg. of freedom    48
 Full point group                 C1      NOp   1
 RotChk:  IX=0 Diff= 2.45D-16
 Largest Abelian subgroup         C1      NOp   1
 Largest concise Abelian subgroup C1      NOp   1
                         Standard orientation:                         
 ---------------------------------------------------------------------
 Center     Atomic      Atomic             Coordinates (Angstroms)
 Number     Number       Type             X           Y           Z
 ---------------------------------------------------------------------
      1          8           0       -1.971737   -1.561856   -0.197895
      2          6           0       -1.334745   -0.549030    0.028261
      3          6           0       -1.822354    0.907272    0.000366
      4          6           0       -0.535643    1.719575   -0.257245
      5          6           0        0.547600    0.879395    0.441193
      6          6           0        1.971716    0.749081   -0.156197
      7          6           0        2.180955   -0.757961   -0.182537
      8          6           0        1.032816   -1.397402    0.073166
      9          7           0        0.002492   -0.488137    0.356110
     10          1           0       -2.596394    1.028175   -0.760398
     11          1           0       -2.268204    1.156805    0.972250
     12          1           0       -0.582205    2.746165    0.116309
     13          1           0       -0.330038    1.758242   -1.333657
     14          1           0        0.617636    1.159388    1.501665
     15          1           0        2.034778    1.171354   -1.171030
     16          1           0        2.710684    1.277485    0.454672
     17          1           0        3.118661   -1.235589   -0.436798
     18          1           0        0.809459   -2.455799    0.065332
 ---------------------------------------------------------------------
 Rotational constants (GHZ):           2.8748966           1.7085537           1.1377130
 Leave Link  202 at Tue Apr  9 11:55:14 2024, MaxMem=  7516192768 cpu:               0.1 elap:               0.0
 (Enter /public3/home/scg9909/software-scg9909/g16/l301.exe)
 Standard basis: 6-31G(d) (6D, 7F)
 Ernie: Thresh=  0.10000D-02 Tol=  0.10000D-05 Strict=F.
 There are   153 symmetry adapted cartesian basis functions of A   symmetry.
 There are   153 symmetry adapted basis functions of A   symmetry.
   153 basis functions,   288 primitive gaussians,   153 cartesian basis functions
    33 alpha electrons       33 beta electrons
       nuclear repulsion energy       448.4771050603 Hartrees.
 IExCor=  402 DFT=T Ex+Corr=B3LYP ExCW=0 ScaHFX=  0.200000
 ScaDFX=  0.800000  0.720000  1.000000  0.810000 ScalE2=  1.000000  1.000000
 IRadAn=      5 IRanWt=     -1 IRanGd=            0 ICorTp=0 IEmpDi=141
 NAtoms=   18 NActive=   18 NUniq=   18 SFac= 1.00D+00 NAtFMM=   60 NAOKFM=F Big=F
 Integral buffers will be    131072 words long.
 Raffenetti 2 integral format.
 Two-electron integral symmetry is turned on.
 R6Disp:  Grimme-D3(BJ) Dispersion energy=       -0.0312208750 Hartrees.
 Nuclear repulsion after empirical dispersion term =      448.4458841854 Hartrees.
 Leave Link  301 at Tue Apr  9 11:55:14 2024, MaxMem=  7516192768 cpu:               0.6 elap:               0.0
 (Enter /public3/home/scg9909/software-scg9909/g16/l302.exe)
 NPDir=0 NMtPBC=     1 NCelOv=     1 NCel=       1 NClECP=     1 NCelD=      1
         NCelK=      1 NCelE2=     1 NClLst=     1 CellRange=     0.0.
 One-electron integrals computed using PRISM.
 One-electron integral symmetry used in STVInt
 NBasis=   153 RedAO= T EigKep=  1.83D-03  NBF=   153
 NBsUse=   153 1.00D-06 EigRej= -1.00D+00 NBFU=   153
 Precomputing XC quadrature grid using
 IXCGrd= 4 IRadAn=           5 IRanWt=          -1 IRanGd=           0 AccXCQ= 0.00D+00.
 Generated NRdTot=       0 NPtTot=           0 NUsed=           0 NTot=          32
 NSgBfM=   153   153   153   153   153 MxSgAt=    18 MxSgA2=    18.
 Leave Link  302 at Tue Apr  9 11:55:14 2024, MaxMem=  7516192768 cpu:               2.5 elap:               0.1
 (Enter /public3/home/scg9909/software-scg9909/g16/l303.exe)
 DipDrv:  MaxL=1.
 Leave Link  303 at Tue Apr  9 11:55:14 2024, MaxMem=  7516192768 cpu:               0.3 elap:               0.0
 (Enter /public3/home/scg9909/software-scg9909/g16/l401.exe)
 Initial guess from the checkpoint file:  "/public3/home/scg9909/tmp/Gau-65552.chk"
 B after Tr=     0.000000    0.000000    0.000000
         Rot=    1.000000    0.000000   -0.000000   -0.000000 Ang=   0.00 deg.
 Guess basis will be translated and rotated to current coordinates.
 JPrj=2 DoOrth=T DoCkMO=T.
 Leave Link  401 at Tue Apr  9 11:55:14 2024, MaxMem=  7516192768 cpu:               1.7 elap:               0.1
 (Enter /public3/home/scg9909/software-scg9909/g16/l502.exe)
 Integral symmetry usage will be decided dynamically.
 Closed shell SCF:
 Using DIIS extrapolation, IDIIS=  1040.
 NGot=  7516192768 LenX=  7516139403 LenY=  7516115553
 Requested convergence on RMS density matrix=1.00D-08 within 128 cycles.
 Requested convergence on MAX density matrix=1.00D-06.
 Requested convergence on             energy=1.00D-06.
 No special actions if energy rises.
 Fock matrices will be formed incrementally for  20 cycles.

 Cycle   1  Pass 1  IDiag  1:
 FoFJK:  IHMeth= 1 ICntrl=       0 DoSepK=F KAlg= 0 I1Cent=           0 FoldK=F
 IRaf= 970000000 NMat=       1 IRICut=       1 DoRegI=T DoRafI=F ISym2E= 0 IDoP0=0 IntGTp=1.
 FoFCou: FMM=F IPFlag=           0 FMFlag=      100000 FMFlg1=           0
         NFxFlg=           0 DoJE=F BraDBF=F KetDBF=F FulRan=T
         wScrn=  0.000000 ICntrl=         0 IOpCl=  0 I1Cent=           0 NGrid=           0
         NMat0=    1 NMatS0=      1 NMatT0=    0 NMatD0=    1 NMtDS0=    0 NMtDT0=    0
 Symmetry not used in FoFCou.
 E= -402.161445792822    
 DIIS: error= 4.40D-09 at cycle   1 NSaved=   1.
 NSaved= 1 IEnMin= 1 EnMin= -402.161445792822     IErMin= 1 ErrMin= 4.40D-09
 ErrMax= 4.40D-09  0.00D+00 EMaxC= 1.00D-01 BMatC= 1.02D-14 BMatP= 1.02D-14
 IDIUse=1 WtCom= 1.00D+00 WtEn= 0.00D+00
 Coeff-Com:  0.100D+01
 Coeff:      0.100D+01
 Gap=     0.211 Goal=   None    Shift=    0.000
 RMSDP=1.60D-09 MaxDP=3.95D-08              OVMax= 8.25D-08

 SCF Done:  E(RB3LYP) =  -402.161445793     A.U. after    1 cycles
            NFock=  1  Conv=0.16D-08     -V/T= 2.0095
 KE= 3.983818006815D+02 PE=-1.831667944843D+03 EE= 5.826788141829D+02
 Leave Link  502 at Tue Apr  9 11:55:15 2024, MaxMem=  7516192768 cpu:              12.4 elap:               0.5
 (Enter /public3/home/scg9909/software-scg9909/g16/l801.exe)
 DoSCS=F DFT=T ScalE2(SS,OS)=  1.000000  1.000000
 Range of M.O.s used for correlation:     1   153
 NBasis=   153 NAE=    33 NBE=    33 NFC=     0 NFV=     0
 NROrb=    153 NOA=    33 NOB=    33 NVA=   120 NVB=   120
 Leave Link  801 at Tue Apr  9 11:55:15 2024, MaxMem=  7516192768 cpu:               0.2 elap:               0.0
 (Enter /public3/home/scg9909/software-scg9909/g16/l1101.exe)
 Using compressed storage, NAtomX=    18.
 Will process     19 centers per pass.
 R6Disp: Adding Grimme-D3(BJ) dispersion energy 1st derivatives to the gradient.
 Leave Link 1101 at Tue Apr  9 11:55:15 2024, MaxMem=  7516192768 cpu:               2.4 elap:               0.1
 (Enter /public3/home/scg9909/software-scg9909/g16/l1102.exe)
 Symmetrizing basis deriv contribution to polar:
 IMax=3 JMax=2 DiffMx= 0.00D+00
 Leave Link 1102 at Tue Apr  9 11:55:15 2024, MaxMem=  7516192768 cpu:               0.3 elap:               0.0
 (Enter /public3/home/scg9909/software-scg9909/g16/l1110.exe)
 Forming Gx(P) for the SCF density, NAtomX=    18.
 Integral derivatives from FoFJK, PRISM(SPDF).
 Do as many integral derivatives as possible in FoFJK.
 G2DrvN: MDV=    7516190778.
 G2DrvN: will do    19 centers at a time, making    1 passes.
 Calling FoFCou, ICntrl=  3107 FMM=F I1Cent=   0 AccDes= 0.00D+00.
 FoFJK:  IHMeth= 1 ICntrl=    3107 DoSepK=F KAlg= 0 I1Cent=           0 FoldK=F
 IRaf=         0 NMat=       1 IRICut=       1 DoRegI=T DoRafI=F ISym2E= 0 IDoP0=0 IntGTp=1.
 FoFCou: FMM=F IPFlag=           0 FMFlag=      100000 FMFlg1=           0
         NFxFlg=           0 DoJE=F BraDBF=F KetDBF=F FulRan=T
         wScrn=  0.000000 ICntrl=      3107 IOpCl=  0 I1Cent=           0 NGrid=           0
         NMat0=    1 NMatS0=      1 NMatT0=    0 NMatD0=    1 NMtDS0=    0 NMtDT0=    0
 Symmetry not used in FoFCou.
 End of G2Drv F.D. properties file   721 does not exist.
 End of G2Drv F.D. properties file   722 does not exist.
 End of G2Drv F.D. properties file   788 does not exist.
 Leave Link 1110 at Tue Apr  9 11:55:24 2024, MaxMem=  7516192768 cpu:             254.8 elap:               9.1
 (Enter /public3/home/scg9909/software-scg9909/g16/l1002.exe)
 Minotr:  Closed shell wavefunction.
          IDoAtm=111111111111111111
          Direct CPHF calculation.
          Differentiating once with respect to electric field.
                with respect to dipole field.
          Differentiating once with respect to nuclear coordinates.
          Requested convergence is 1.0D-08 RMS, and 1.0D-07 maximum.
          Secondary convergence is 1.0D-12 RMS, and 1.0D-12 maximum.
          NewPWx=T KeepS1=F KeepF1=F KeepIn=T MapXYZ=F SortEE=F KeepMc=T.
         5309 words used for storage of precomputed grid.
 Keep R1 ints in memory in canonical form, NReq=96781322.
 FoFCou: FMM=F IPFlag=           0 FMFlag=           0 FMFlg1=           0
         NFxFlg=           0 DoJE=F BraDBF=F KetDBF=F FulRan=T
         wScrn=  0.000000 ICntrl=       600 IOpCl=  0 I1Cent=           0 NGrid=           0
         NMat0=    1 NMatS0=  11781 NMatT0=    0 NMatD0=    1 NMtDS0=    0 NMtDT0=    0
 Symmetry not used in FoFCou.
 Two-electron integral symmetry not used.
          MDV=    7516192768 using IRadAn=       1.
          Solving linear equations simultaneously, MaxMat=       0.
          There are    57 degrees of freedom in the 1st order CPHF.  IDoFFX=6 NUNeed=     3.
     54 vectors produced by pass  0 Test12= 6.95D-15 1.75D-09 XBig12= 1.07D+02 8.08D+00.
 AX will form    54 AO Fock derivatives at one time.
     54 vectors produced by pass  1 Test12= 6.95D-15 1.75D-09 XBig12= 1.39D+01 6.40D-01.
     54 vectors produced by pass  2 Test12= 6.95D-15 1.75D-09 XBig12= 1.19D-01 4.69D-02.
     54 vectors produced by pass  3 Test12= 6.95D-15 1.75D-09 XBig12= 3.55D-04 2.43D-03.
     54 vectors produced by pass  4 Test12= 6.95D-15 1.75D-09 XBig12= 4.41D-07 7.99D-05.
     31 vectors produced by pass  5 Test12= 6.95D-15 1.75D-09 XBig12= 3.61D-10 2.09D-06.
      3 vectors produced by pass  6 Test12= 6.95D-15 1.75D-09 XBig12= 2.57D-13 5.79D-08.
      1 vectors produced by pass  7 Test12= 6.95D-15 1.75D-09 XBig12= 1.98D-16 2.07D-09.
 InvSVY:  IOpt=1 It=  1 EMax= 5.33D-15
 Solved reduced A of dimension   305 with    57 vectors.
 FullF1:  Do perturbations      1 to       3.
 Isotropic polarizability for W=    0.000000       76.32 Bohr**3.
 End of Minotr F.D. properties file   721 does not exist.
 End of Minotr F.D. properties file   722 does not exist.
 End of Minotr F.D. properties file   788 does not exist.
 Leave Link 1002 at Tue Apr  9 11:55:31 2024, MaxMem=  7516192768 cpu:             201.1 elap:               7.2
 (Enter /public3/home/scg9909/software-scg9909/g16/l601.exe)
 Copying SCF densities to generalized density rwf, IOpCl= 0 IROHF=0.

 **********************************************************************

            Population analysis using the SCF Density.

 **********************************************************************

 Orbital symmetries:
       Occupied  (A) (A) (A) (A) (A) (A) (A) (A) (A) (A) (A) (A)
                 (A) (A) (A) (A) (A) (A) (A) (A) (A) (A) (A) (A)
                 (A) (A) (A) (A) (A) (A) (A) (A) (A)
       Virtual   (A) (A) (A) (A) (A) (A) (A) (A) (A) (A) (A) (A)
                 (A) (A) (A) (A) (A) (A) (A) (A) (A) (A) (A) (A)
                 (A) (A) (A) (A) (A) (A) (A) (A) (A) (A) (A) (A)
                 (A) (A) (A) (A) (A) (A) (A) (A) (A) (A) (A) (A)
                 (A) (A) (A) (A) (A) (A) (A) (A) (A) (A) (A) (A)
                 (A) (A) (A) (A) (A) (A) (A) (A) (A) (A) (A) (A)
                 (A) (A) (A) (A) (A) (A) (A) (A) (A) (A) (A) (A)
                 (A) (A) (A) (A) (A) (A) (A) (A) (A) (A) (A) (A)
                 (A) (A) (A) (A) (A) (A) (A) (A) (A) (A) (A) (A)
                 (A) (A) (A) (A) (A) (A) (A) (A) (A) (A) (A) (A)
 The electronic state is 1-A.
 Alpha  occ. eigenvalues --  -19.11077 -14.36342 -10.28187 -10.23522 -10.22386
 Alpha  occ. eigenvalues --  -10.20239 -10.20196 -10.19703 -10.18909  -1.03110
 Alpha  occ. eigenvalues --   -0.96294  -0.81687  -0.78661  -0.71759  -0.67126
 Alpha  occ. eigenvalues --   -0.60743  -0.59128  -0.54212  -0.50744  -0.46634
 Alpha  occ. eigenvalues --   -0.45422  -0.43440  -0.42811  -0.41457  -0.39241
 Alpha  occ. eigenvalues --   -0.38888  -0.38213  -0.37958  -0.34487  -0.33786
 Alpha  occ. eigenvalues --   -0.30873  -0.24430  -0.20969
 Alpha virt. eigenvalues --    0.00089   0.04956   0.08415   0.10789   0.11624
 Alpha virt. eigenvalues --    0.12592   0.13732   0.15405   0.16476   0.16706
 Alpha virt. eigenvalues --    0.17621   0.19387   0.19821   0.22193   0.24079
 Alpha virt. eigenvalues --    0.26280   0.28179   0.32404   0.35061   0.37647
 Alpha virt. eigenvalues --    0.41928   0.48901   0.51701   0.52492   0.53965
 Alpha virt. eigenvalues --    0.54104   0.56661   0.57867   0.59097   0.61117
 Alpha virt. eigenvalues --    0.62774   0.63143   0.65073   0.66308   0.68575
 Alpha virt. eigenvalues --    0.71276   0.73139   0.74076   0.78817   0.79925
 Alpha virt. eigenvalues --    0.83174   0.83718   0.84866   0.85112   0.86849
 Alpha virt. eigenvalues --    0.87582   0.89094   0.90950   0.92422   0.92898
 Alpha virt. eigenvalues --    0.94283   0.95709   0.96867   1.03940   1.05442
 Alpha virt. eigenvalues --    1.07445   1.10078   1.13770   1.17924   1.25799
 Alpha virt. eigenvalues --    1.32658   1.33885   1.35978   1.43830   1.46277
 Alpha virt. eigenvalues --    1.50107   1.56297   1.59285   1.61536   1.71237
 Alpha virt. eigenvalues --    1.76486   1.77660   1.78956   1.79548   1.79905
 Alpha virt. eigenvalues --    1.82491   1.83990   1.87198   1.90289   1.93670
 Alpha virt. eigenvalues --    1.94702   1.97776   1.99671   2.01130   2.05683
 Alpha virt. eigenvalues --    2.06566   2.09182   2.11835   2.16869   2.20004
 Alpha virt. eigenvalues --    2.20879   2.27587   2.32290   2.35331   2.36704
 Alpha virt. eigenvalues --    2.40170   2.47552   2.47714   2.50442   2.52576
 Alpha virt. eigenvalues --    2.55623   2.60739   2.68916   2.70679   2.74016
 Alpha virt. eigenvalues --    2.75051   2.83076   2.89429   3.00100   3.06993
 Alpha virt. eigenvalues --    3.21192   4.03834   4.08736   4.12888   4.16868
 Alpha virt. eigenvalues --    4.26302   4.35160   4.48441   4.65192   4.66922
          Condensed to atoms (all electrons):
               1          2          3          4          5          6
     1  O    8.032472   0.616441  -0.072778   0.001966   0.003529  -0.000150
     2  C    0.616441   4.368194   0.330695  -0.042419  -0.048502   0.001630
     3  C   -0.072778   0.330695   5.340311   0.319001  -0.047859   0.003018
     4  C    0.001966  -0.042419   0.319001   5.087937   0.366343  -0.026170
     5  C    0.003529  -0.048502  -0.047859   0.366343   4.854562   0.371286
     6  C   -0.000150   0.001630   0.003018  -0.026170   0.371286   5.093026
     7  C    0.000671   0.004676   0.000155   0.000749  -0.040411   0.364071
     8  C    0.005553  -0.024951   0.010402   0.004951  -0.066047  -0.042017
     9  N   -0.092512   0.261252  -0.158279  -0.038547   0.292766  -0.077678
    10  H    0.002091  -0.024671   0.363788  -0.025685   0.004211  -0.000047
    11  H    0.000820  -0.021127   0.353276  -0.032890   0.000691  -0.000074
    12  H   -0.000050   0.003274  -0.025554   0.360723  -0.027948   0.000047
    13  H    0.000009   0.002617  -0.038579   0.372266  -0.037784  -0.007375
    14  H   -0.000031   0.001708  -0.003442  -0.043340   0.373893  -0.047648
    15  H   -0.000004   0.000573  -0.000067  -0.006715  -0.032848   0.354729
    16  H    0.000001  -0.000090  -0.000069   0.001934  -0.027774   0.366625
    17  H    0.000001  -0.000090   0.000015  -0.000090   0.004290  -0.040988
    18  H    0.003575   0.000173   0.000149  -0.000219   0.005067   0.005077
               7          8          9         10         11         12
     1  O    0.000671   0.005553  -0.092512   0.002091   0.000820  -0.000050
     2  C    0.004676  -0.024951   0.261252  -0.024671  -0.021127   0.003274
     3  C    0.000155   0.010402  -0.158279   0.363788   0.353276  -0.025554
     4  C    0.000749   0.004951  -0.038547  -0.025685  -0.032890   0.360723
     5  C   -0.040411  -0.066047   0.292766   0.004211   0.000691  -0.027948
     6  C    0.364071  -0.042017  -0.077678  -0.000047  -0.000074   0.000047
     7  C    4.997345   0.655295  -0.053849   0.000022  -0.000022  -0.000006
     8  C    0.655295   4.739771   0.288811  -0.000124  -0.000128  -0.000197
     9  N   -0.053849   0.288811   7.105638   0.004161  -0.000222   0.003930
    10  H    0.000022  -0.000124   0.004161   0.533822  -0.026920   0.000564
    11  H   -0.000022  -0.000128  -0.000222  -0.026920   0.553144  -0.005434
    12  H   -0.000006  -0.000197   0.003930   0.000564  -0.005434   0.576006
    13  H   -0.000429   0.000496   0.000177  -0.006277   0.004804  -0.031849
    14  H    0.001725   0.004748  -0.052829  -0.000245   0.002781  -0.002626
    15  H   -0.035251  -0.002877   0.004536  -0.000029   0.000017   0.000563
    16  H   -0.028589   0.000437   0.003634   0.000002  -0.000000  -0.000154
    17  H    0.368530  -0.035581   0.004483  -0.000000  -0.000000   0.000003
    18  H   -0.045471   0.373529  -0.046121  -0.000002  -0.000000   0.000004
              13         14         15         16         17         18
     1  O    0.000009  -0.000031  -0.000004   0.000001   0.000001   0.003575
     2  C    0.002617   0.001708   0.000573  -0.000090  -0.000090   0.000173
     3  C   -0.038579  -0.003442  -0.000067  -0.000069   0.000015   0.000149
     4  C    0.372266  -0.043340  -0.006715   0.001934  -0.000090  -0.000219
     5  C   -0.037784   0.373893  -0.032848  -0.027774   0.004290   0.005067
     6  C   -0.007375  -0.047648   0.354729   0.366625  -0.040988   0.005077
     7  C   -0.000429   0.001725  -0.035251  -0.028589   0.368530  -0.045471
     8  C    0.000496   0.004748  -0.002877   0.000437  -0.035581   0.373529
     9  N    0.000177  -0.052829   0.004536   0.003634   0.004483  -0.046121
    10  H   -0.006277  -0.000245  -0.000029   0.000002  -0.000000  -0.000002
    11  H    0.004804   0.002781   0.000017  -0.000000  -0.000000  -0.000000
    12  H   -0.031849  -0.002626   0.000563  -0.000154   0.000003   0.000004
    13  H    0.575397   0.005587   0.007153   0.000017  -0.000022   0.000004
    14  H    0.005587   0.611556   0.005628  -0.007187  -0.000136  -0.000101
    15  H    0.007153   0.005628   0.591157  -0.039418   0.000663  -0.000101
    16  H    0.000017  -0.007187  -0.039418   0.576639  -0.000469  -0.000127
    17  H   -0.000022  -0.000136   0.000663  -0.000469   0.560515  -0.001859
    18  H    0.000004  -0.000101  -0.000101  -0.000127  -0.001859   0.532691
 Mulliken charges:
               1
     1  O   -0.501604
     2  C    0.570616
     3  C   -0.374181
     4  C   -0.299795
     5  C    0.052535
     6  C   -0.317363
     7  C   -0.189212
     8  C    0.087933
     9  N   -0.449351
    10  H    0.175339
    11  H    0.171284
    12  H    0.148704
    13  H    0.153789
    14  H    0.149958
    15  H    0.152293
    16  H    0.154589
    17  H    0.140735
    18  H    0.173732
 Sum of Mulliken charges =  -0.00000
 Mulliken charges with hydrogens summed into heavy atoms:
               1
     1  O   -0.501604
     2  C    0.570616
     3  C   -0.027558
     4  C    0.002698
     5  C    0.202493
     6  C   -0.010481
     7  C   -0.048477
     8  C    0.261664
     9  N   -0.449351
 APT charges:
               1
     1  O   -0.800825
     2  C    1.141442
     3  C   -0.023048
     4  C    0.089850
     5  C    0.282565
     6  C    0.098584
     7  C   -0.156366
     8  C    0.310237
     9  N   -0.834028
    10  H    0.000620
    11  H   -0.015851
    12  H   -0.026896
    13  H   -0.031152
    14  H   -0.072936
    15  H   -0.041139
    16  H   -0.021391
    17  H    0.031599
    18  H    0.068736
 Sum of APT charges =  -0.00000
 APT charges with hydrogens summed into heavy atoms:
               1
     1  O   -0.800825
     2  C    1.141442
     3  C   -0.038280
     4  C    0.031802
     5  C    0.209629
     6  C    0.036055
     7  C   -0.124767
     8  C    0.378972
     9  N   -0.834028
 Electronic spatial extent (au):  <R**2>=           1056.3783
 Charge=             -0.0000 electrons
 Dipole moment (field-independent basis, Debye):
    X=              2.4170    Y=              2.9943    Z=              0.2637  Tot=              3.8571
 Quadrupole moment (field-independent basis, Debye-Ang):
   XX=            -54.7435   YY=            -53.4063   ZZ=            -52.5586
   XY=             -6.5549   XZ=             -1.3017   YZ=             -0.0921
 Traceless Quadrupole moment (field-independent basis, Debye-Ang):
   XX=             -1.1741   YY=              0.1632   ZZ=              1.0109
   XY=             -6.5549   XZ=             -1.3017   YZ=             -0.0921
 Octapole moment (field-independent basis, Debye-Ang**2):
  XXX=              9.2805  YYY=             -3.2198  ZZZ=             -0.3920  XYY=              9.6752
  XXY=             11.5015  XXZ=              0.0238  XZZ=             -5.0548  YZZ=              1.6444
  YYZ=              1.8838  XYZ=              2.5391
 Hexadecapole moment (field-independent basis, Debye-Ang**3):
 XXXX=           -790.6898 YYYY=           -476.1418 ZZZZ=            -96.8497 XXXY=            -24.5920
 XXXZ=             -7.4319 YYYX=            -13.1460 YYYZ=              1.7898 ZZZX=              1.2370
 ZZZY=              0.7987 XXYY=           -229.2965 XXZZ=           -147.9351 YYZZ=            -98.2681
 XXYZ=              1.2907 YYXZ=             -2.8871 ZZXY=              5.4274
 N-N= 4.484458841854D+02 E-N=-1.831667943116D+03  KE= 3.983818006815D+02
  Exact polarizability:      99.170       3.371      78.051      -1.772       1.574      51.726
 Approx polarizability:     149.307      18.289     114.040      -2.356       3.156      80.540
 No NMR shielding tensors so no spin-rotation constants.
 Leave Link  601 at Tue Apr  9 11:55:31 2024, MaxMem=  7516192768 cpu:               1.9 elap:               0.1
 (Enter /public3/home/scg9909/software-scg9909/g16/l701.exe)
 ... and contract with generalized density number  0.
 Compute integral second derivatives.
 R6Disp: Adding Grimme-D3(BJ) dispersion energy 2nd derivatives to the Hessian.
 Leave Link  701 at Tue Apr  9 11:55:31 2024, MaxMem=  7516192768 cpu:               2.8 elap:               0.1
 (Enter /public3/home/scg9909/software-scg9909/g16/l702.exe)
 L702 exits ... SP integral derivatives will be done elsewhere.
 Leave Link  702 at Tue Apr  9 11:55:31 2024, MaxMem=  7516192768 cpu:               0.2 elap:               0.0
 (Enter /public3/home/scg9909/software-scg9909/g16/l703.exe)
 Integral derivatives from FoFJK, PRISM(SPDF).
 Compute integral second derivatives, UseDBF=F ICtDFT=           0.
 Calling FoFJK, ICntrl=    100127 FMM=F ISym2X=0 I1Cent= 0 IOpClX= 0 NMat=1 NMatS=1 NMatT=0.
 FoFJK:  IHMeth= 1 ICntrl=  100127 DoSepK=F KAlg= 0 I1Cent=           0 FoldK=F
 IRaf=         0 NMat=       1 IRICut=       1 DoRegI=T DoRafI=F ISym2E= 0 IDoP0=0 IntGTp=1.
 FoFCou: FMM=F IPFlag=           0 FMFlag=      100000 FMFlg1=         800
         NFxFlg=           0 DoJE=F BraDBF=F KetDBF=F FulRan=T
         wScrn=  0.000000 ICntrl=    100127 IOpCl=  0 I1Cent=           0 NGrid=           0
         NMat0=    1 NMatS0=      1 NMatT0=    0 NMatD0=    1 NMtDS0=    0 NMtDT0=    0
 Symmetry not used in FoFCou.
 Leave Link  703 at Tue Apr  9 11:55:41 2024, MaxMem=  7516192768 cpu:             261.9 elap:               9.4
 (Enter /public3/home/scg9909/software-scg9909/g16/l716.exe)
 Dipole        = 9.50904731D-01 1.17805559D+00 1.03729299D-01
 Polarizability= 9.91696122D+01 3.37065528D+00 7.80508834D+01
                -1.77195263D+00 1.57387776D+00 5.17256001D+01
 Full mass-weighted force constant matrix:
 Low frequencies ---    0.0005    0.0008    0.0011    2.9597    6.7785    7.3541
 Low frequencies ---  118.1816  136.4839  173.9401
 Diagonal vibrational polarizability:
       15.0010333       3.8602509       8.8028578
 Harmonic frequencies (cm**-1), IR intensities (KM/Mole), Raman scattering
 activities (A**4/AMU), depolarization ratios for plane and unpolarized
 incident light, reduced masses (AMU), force constants (mDyne/A),
 and normal coordinates:
                      1                      2                      3
                      A                      A                      A
 Frequencies --    118.1808               136.4834               173.9400
 Red. masses --      2.7369                 5.3593                 2.0531
 Frc consts  --      0.0225                 0.0588                 0.0366
 IR Inten    --      1.6967                 2.2596                 1.8492
  Atom  AN      X      Y      Z        X      Y      Z        X      Y      Z
     1   8    -0.05  -0.01   0.15     0.17  -0.01  -0.17     0.00   0.03  -0.11
     2   6    -0.02  -0.01   0.04     0.05   0.02   0.06    -0.01   0.01   0.02
     3   6     0.01   0.00  -0.07     0.01  -0.01  -0.07    -0.00   0.01   0.20
     4   6     0.04  -0.05  -0.12     0.03  -0.04  -0.05    -0.02  -0.08  -0.14
     5   6    -0.03  -0.01   0.04     0.01   0.05   0.11    -0.02   0.02  -0.05
     6   6     0.06   0.04   0.21    -0.04  -0.02  -0.02     0.02   0.00   0.04
     7   6    -0.01   0.04  -0.10    -0.15  -0.02  -0.25     0.01   0.00   0.04
     8   6    -0.01   0.02  -0.17    -0.09   0.01   0.06     0.00   0.00   0.01
     9   7     0.00  -0.02  -0.01    -0.02   0.03   0.40    -0.00  -0.00  -0.00
    10   1     0.03  -0.05  -0.09     0.06  -0.09  -0.13    -0.23   0.08   0.45
    11   1     0.01   0.10  -0.10    -0.05   0.07  -0.12     0.35   0.01   0.37
    12   1     0.05  -0.01  -0.25    -0.00   0.00  -0.18     0.07   0.02  -0.39
    13   1     0.10  -0.20  -0.11     0.10  -0.17  -0.05    -0.14  -0.37  -0.18
    14   1    -0.19   0.02   0.04     0.07   0.27   0.04    -0.09   0.09  -0.07
    15   1     0.25   0.29   0.33    -0.06   0.14   0.05     0.09   0.02   0.05
    16   1    -0.01  -0.15   0.46     0.06  -0.19   0.01    -0.02  -0.01   0.09
    17   1    -0.02   0.06  -0.20    -0.24  -0.05  -0.55     0.02   0.00   0.07
    18   1    -0.03   0.03  -0.35    -0.14   0.03   0.05     0.01   0.00   0.00
                      4                      5                      6
                      A                      A                      A
 Frequencies --    308.4603               421.9646               474.8171
 Red. masses --      4.6158                 2.2036                 3.1103
 Frc consts  --      0.2588                 0.2312                 0.4132
 IR Inten    --      4.3940                 6.1221                 7.2126
  Atom  AN      X      Y      Z        X      Y      Z        X      Y      Z
     1   8     0.27  -0.14   0.05    -0.10   0.04  -0.02     0.07  -0.13   0.07
     2   6     0.02   0.03  -0.00     0.00  -0.02  -0.03    -0.01  -0.02  -0.15
     3   6    -0.08   0.01   0.05    -0.03  -0.06   0.01     0.10   0.09   0.01
     4   6    -0.10   0.11   0.02    -0.09   0.05   0.01     0.13   0.03  -0.00
     5   6     0.02   0.10  -0.09     0.01   0.02  -0.11    -0.04  -0.04   0.05
     6   6     0.11  -0.10   0.07     0.12  -0.01   0.03    -0.11   0.04   0.02
     7   6    -0.08  -0.15   0.05     0.01  -0.02  -0.13    -0.11   0.05  -0.13
     8   6    -0.18   0.01  -0.06     0.07  -0.01   0.16    -0.01  -0.01   0.16
     9   7    -0.01   0.16  -0.12     0.02  -0.01   0.01    -0.05   0.01  -0.12
    10   1    -0.12   0.02   0.08    -0.06  -0.09   0.03    -0.07   0.37   0.22
    11   1    -0.05  -0.04   0.08    -0.03  -0.13   0.03     0.37  -0.03   0.17
    12   1    -0.16   0.07   0.13    -0.14  -0.02   0.21     0.19   0.04  -0.03
    13   1    -0.19   0.24   0.00    -0.18   0.27   0.01     0.20  -0.03   0.01
    14   1     0.01   0.09  -0.08     0.00   0.06  -0.12    -0.11  -0.15   0.09
    15   1     0.35  -0.08   0.09     0.43   0.26   0.17    -0.13   0.23   0.10
    16   1     0.09  -0.24   0.21     0.04  -0.27   0.36    -0.07  -0.11   0.10
    17   1    -0.13  -0.26   0.08     0.00  -0.05  -0.12    -0.06   0.09  -0.02
    18   1    -0.41   0.06  -0.14     0.14  -0.03   0.40     0.08  -0.03   0.46
                      7                      8                      9
                      A                      A                      A
 Frequencies --    552.1087               584.9814               605.2431
 Red. masses --      2.2931                 4.5060                 3.5725
 Frc consts  --      0.4118                 0.9085                 0.7710
 IR Inten    --     10.9724                 2.0875                 2.6309
  Atom  AN      X      Y      Z        X      Y      Z        X      Y      Z
     1   8    -0.07  -0.05   0.04    -0.14  -0.13  -0.02     0.02  -0.15  -0.09
     2   6     0.02  -0.06  -0.14    -0.13  -0.08  -0.09    -0.16  -0.08   0.21
     3   6     0.12  -0.04  -0.03    -0.03  -0.09   0.01    -0.01   0.16   0.04
     4   6     0.02   0.10  -0.04     0.09  -0.15   0.10     0.11   0.06  -0.01
     5   6    -0.01   0.04  -0.07     0.18   0.07   0.08    -0.00  -0.08  -0.17
     6   6     0.00   0.01   0.00     0.23   0.07  -0.08     0.05   0.04  -0.03
     7   6    -0.01   0.02   0.08    -0.02   0.05   0.02     0.01   0.08   0.04
     8   6    -0.04   0.02  -0.07    -0.10   0.19   0.04     0.01   0.03  -0.02
     9   7    -0.02  -0.04   0.16    -0.08   0.12  -0.01    -0.09  -0.09   0.06
    10   1    -0.16   0.15   0.29     0.06   0.15  -0.04     0.14   0.12  -0.13
    11   1     0.47  -0.25   0.19    -0.08  -0.16   0.01    -0.15   0.50  -0.12
    12   1    -0.08  -0.01   0.26     0.01  -0.04  -0.22     0.27  -0.02   0.26
    13   1     0.00   0.42  -0.03     0.12  -0.43   0.09     0.01   0.32  -0.02
    14   1    -0.01   0.14  -0.10     0.33  -0.04   0.09     0.05  -0.04  -0.18
    15   1     0.03  -0.11  -0.05     0.19   0.03  -0.11     0.26   0.11   0.00
    16   1    -0.04   0.10  -0.03     0.30   0.04  -0.13    -0.11   0.03   0.17
    17   1    -0.06   0.01  -0.09    -0.14  -0.17  -0.01     0.01   0.05   0.08
    18   1    -0.08   0.03  -0.33    -0.13   0.20  -0.03     0.18  -0.01  -0.02
                     10                     11                     12
                      A                      A                      A
 Frequencies --    660.8903               706.9418               736.0088
 Red. masses --      4.8075                 2.4368                 1.5971
 Frc consts  --      1.2372                 0.7175                 0.5097
 IR Inten    --     19.0558                 3.9113                22.5995
  Atom  AN      X      Y      Z        X      Y      Z        X      Y      Z
     1   8    -0.08   0.03  -0.10     0.06   0.09   0.04    -0.04  -0.05  -0.01
     2   6     0.08  -0.12   0.25     0.06   0.08  -0.06    -0.03  -0.04   0.01
     3   6     0.26  -0.22   0.04     0.01  -0.05  -0.00    -0.00   0.02  -0.01
     4   6     0.10   0.05  -0.04     0.02  -0.13   0.05    -0.01   0.08  -0.02
     5   6     0.02   0.11  -0.02     0.03  -0.09  -0.10     0.01   0.09   0.08
     6   6    -0.08   0.06   0.02    -0.00   0.09  -0.06    -0.00  -0.03  -0.01
     7   6    -0.17   0.03   0.01    -0.13   0.08   0.02     0.03  -0.04  -0.08
     8   6    -0.13  -0.00   0.03    -0.10  -0.02  -0.08     0.02  -0.01  -0.10
     9   7     0.04   0.06  -0.16    -0.01  -0.04   0.06     0.01   0.00   0.04
    10   1     0.31  -0.55  -0.06     0.04  -0.02  -0.03    -0.04   0.02   0.03
    11   1     0.12   0.06  -0.10    -0.03  -0.16   0.01     0.04   0.04   0.00
    12   1    -0.15  -0.02   0.12     0.10  -0.16   0.13    -0.11   0.11  -0.11
    13   1     0.14   0.24  -0.02    -0.06  -0.04   0.04     0.05   0.00  -0.01
    14   1    -0.09   0.03   0.01     0.12  -0.08  -0.11    -0.02   0.11   0.08
    15   1    -0.11   0.07   0.03     0.26   0.25   0.03    -0.10   0.05   0.02
    16   1    -0.01  -0.01  -0.01    -0.10  -0.07   0.21     0.13  -0.14  -0.07
    17   1    -0.14   0.04   0.09     0.05   0.05   0.71     0.28  -0.01   0.79
    18   1    -0.23   0.02   0.08     0.05  -0.05   0.21     0.12  -0.04   0.34
                     13                     14                     15
                      A                      A                      A
 Frequencies --    825.7837               867.6069               921.7829
 Red. masses --      2.1540                 2.7492                 1.3657
 Frc consts  --      0.8654                 1.2193                 0.6837
 IR Inten    --     17.2138                 1.6438                 1.8149
  Atom  AN      X      Y      Z        X      Y      Z        X      Y      Z
     1   8     0.04   0.04  -0.01    -0.03  -0.01   0.01     0.01   0.01   0.00
     2   6    -0.07   0.06   0.08     0.03  -0.03  -0.06    -0.00   0.01   0.00
     3   6    -0.02  -0.06  -0.08     0.08  -0.02   0.08     0.02  -0.02  -0.00
     4   6     0.02  -0.10  -0.05     0.06  -0.02   0.06    -0.00   0.03   0.00
     5   6    -0.04  -0.11   0.04    -0.09  -0.01  -0.10    -0.01  -0.00   0.01
     6   6     0.01  -0.06   0.01    -0.15  -0.15   0.01     0.01  -0.04  -0.01
     7   6     0.09  -0.02  -0.05     0.12  -0.04  -0.03     0.00   0.03   0.09
     8   6    -0.00   0.16  -0.00     0.01   0.19  -0.02    -0.03   0.03  -0.13
     9   7    -0.03   0.07  -0.02    -0.00   0.10   0.04    -0.02  -0.01   0.00
    10   1    -0.32  -0.06   0.23     0.38   0.02  -0.21     0.01  -0.05   0.00
    11   1     0.42   0.09   0.09    -0.32  -0.16  -0.07     0.01  -0.05   0.00
    12   1    -0.15  -0.27   0.39     0.28   0.04  -0.08    -0.04   0.06  -0.08
    13   1     0.21   0.37   0.01    -0.17  -0.22   0.01     0.02  -0.06   0.00
    14   1    -0.07  -0.07   0.04    -0.04   0.11  -0.14     0.02  -0.05   0.02
    15   1    -0.14  -0.01   0.02     0.06  -0.01   0.08     0.07  -0.06  -0.01
    16   1    -0.03   0.03  -0.04    -0.37  -0.12   0.23     0.02  -0.07   0.01
    17   1     0.07  -0.14   0.11     0.15  -0.04   0.09    -0.15   0.01  -0.46
    18   1    -0.03   0.16   0.14    -0.17   0.23   0.03     0.32  -0.05   0.77
                     16                     17                     18
                      A                      A                      A
 Frequencies --    951.4462               960.5632               966.1161
 Red. masses --      2.0934                 2.2308                 1.7184
 Frc consts  --      1.1166                 1.2127                 0.9450
 IR Inten    --     12.2454                 1.1787                 1.1201
  Atom  AN      X      Y      Z        X      Y      Z        X      Y      Z
     1   8    -0.01  -0.00   0.00     0.02   0.03   0.02    -0.02  -0.01   0.00
     2   6     0.02  -0.02  -0.01     0.04   0.01  -0.04    -0.01   0.01  -0.05
     3   6     0.04   0.03   0.02    -0.04  -0.06   0.06    -0.06   0.00   0.06
     4   6    -0.03   0.00  -0.00     0.04   0.16  -0.06     0.07  -0.10  -0.03
     5   6    -0.07  -0.04  -0.01    -0.04  -0.12   0.01     0.06   0.06  -0.06
     6   6     0.05   0.21   0.00     0.12  -0.05   0.05    -0.00   0.00   0.14
     7   6     0.08  -0.17  -0.02    -0.05   0.07  -0.06    -0.03   0.01  -0.03
     8   6    -0.06   0.00  -0.02    -0.02   0.10   0.04    -0.00  -0.04  -0.03
     9   7     0.02  -0.02   0.02    -0.06  -0.07   0.00     0.03   0.04   0.01
    10   1     0.11   0.03  -0.06    -0.01  -0.44  -0.02     0.09   0.09  -0.09
    11   1    -0.06   0.02  -0.03    -0.25  -0.21   0.00    -0.20   0.03  -0.02
    12   1     0.07   0.00   0.01     0.31   0.20  -0.13     0.19  -0.23   0.33
    13   1    -0.10  -0.01  -0.01    -0.07   0.02  -0.09    -0.18   0.26  -0.07
    14   1    -0.22  -0.05   0.01    -0.20  -0.21   0.04    -0.20   0.30  -0.11
    15   1    -0.20   0.26   0.01    -0.21  -0.22  -0.05    -0.37  -0.25   0.01
    16   1    -0.10   0.46  -0.03     0.24   0.13  -0.25     0.20   0.17  -0.26
    17   1    -0.12  -0.59  -0.04    -0.10  -0.15   0.20     0.04   0.16  -0.05
    18   1    -0.21   0.03   0.29     0.15   0.07  -0.10     0.04  -0.05   0.25
                     19                     20                     21
                      A                      A                      A
 Frequencies --    980.2034              1056.6746              1076.2974
 Red. masses --      2.2854                 3.4496                 2.2975
 Frc consts  --      1.2937                 2.2693                 1.5681
 IR Inten    --      2.0412                21.3617                 4.3913
  Atom  AN      X      Y      Z        X      Y      Z        X      Y      Z
     1   8     0.03   0.00   0.01    -0.08  -0.02  -0.01    -0.03  -0.01  -0.02
     2   6    -0.01   0.02  -0.01     0.23  -0.18  -0.02     0.05  -0.07   0.07
     3   6     0.21   0.08   0.02    -0.09   0.16  -0.00    -0.00   0.06  -0.10
     4   6    -0.16  -0.09   0.02    -0.06  -0.07  -0.02    -0.10   0.05   0.04
     5   6    -0.06  -0.00   0.01    -0.11  -0.04   0.08     0.14  -0.11  -0.09
     6   6     0.09  -0.06   0.03     0.05  -0.04  -0.08    -0.03  -0.02   0.14
     7   6    -0.03   0.05  -0.03    -0.08   0.07   0.06    -0.03   0.03  -0.05
     8   6     0.00   0.05   0.02    -0.04   0.08  -0.02    -0.04   0.04  -0.00
     9   7    -0.05  -0.05  -0.01     0.17   0.02  -0.00     0.07   0.03   0.01
    10   1     0.42   0.29  -0.16    -0.14  -0.01   0.02    -0.15   0.20   0.07
    11   1     0.05   0.22  -0.10     0.03   0.40  -0.01     0.18  -0.08   0.03
    12   1    -0.46  -0.11   0.02     0.39  -0.14   0.24    -0.06   0.15  -0.23
    13   1    -0.31  -0.04  -0.01     0.11   0.12   0.02    -0.14  -0.20   0.02
    14   1    -0.19   0.00   0.02    -0.23  -0.02   0.08     0.38  -0.32  -0.05
    15   1    -0.05  -0.22  -0.06     0.17   0.01  -0.05    -0.20  -0.26   0.02
    16   1     0.23  -0.01  -0.18     0.20  -0.32  -0.03    -0.16   0.36  -0.03
    17   1    -0.05  -0.03   0.09    -0.15  -0.03   0.03     0.05   0.14   0.06
    18   1     0.17   0.02  -0.08    -0.25   0.13   0.10    -0.22   0.08   0.22
                     22                     23                     24
                      A                      A                      A
 Frequencies --   1085.8916              1130.5203              1148.2378
 Red. masses --      2.0224                 1.3034                 1.2117
 Frc consts  --      1.4050                 0.9815                 0.9412
 IR Inten    --      1.7807                 1.6020                 8.5530
  Atom  AN      X      Y      Z        X      Y      Z        X      Y      Z
     1   8    -0.01  -0.02   0.02    -0.00  -0.01   0.00     0.00   0.00  -0.01
     2   6     0.00   0.01  -0.11    -0.04   0.03  -0.02    -0.02   0.00   0.06
     3   6     0.00   0.03   0.12     0.04  -0.01   0.02     0.02   0.01  -0.04
     4   6    -0.04   0.02  -0.13    -0.01   0.02  -0.01    -0.02   0.02  -0.03
     5   6     0.17  -0.07   0.06    -0.05  -0.06   0.02     0.06  -0.04   0.02
     6   6    -0.07  -0.00  -0.01     0.06   0.03  -0.02    -0.01  -0.00  -0.04
     7   6     0.02  -0.00   0.03     0.05   0.01  -0.01     0.02   0.01   0.05
     8   6    -0.02   0.04   0.01    -0.02  -0.06  -0.00    -0.01   0.01   0.00
     9   7     0.00  -0.01   0.01    -0.02   0.03   0.02     0.01  -0.00  -0.01
    10   1     0.13  -0.33  -0.08     0.06  -0.13  -0.01     0.03   0.26  -0.01
    11   1    -0.17   0.44  -0.08    -0.03   0.01  -0.02    -0.05  -0.41   0.04
    12   1    -0.38  -0.06   0.06     0.00   0.01  -0.01     0.17   0.01   0.02
    13   1    -0.06   0.27  -0.12    -0.00   0.00  -0.01    -0.41   0.04  -0.11
    14   1     0.31  -0.16   0.07    -0.09  -0.09   0.03    -0.14   0.04   0.01
    15   1    -0.15   0.29   0.11     0.12  -0.06  -0.06    -0.32   0.42   0.13
    16   1    -0.12  -0.10   0.12     0.12   0.00  -0.06     0.25  -0.37  -0.04
    17   1    -0.02  -0.02  -0.05     0.34   0.61  -0.09     0.00   0.03  -0.06
    18   1    -0.06   0.04  -0.00    -0.60   0.05   0.20    -0.08   0.03  -0.04
                     25                     26                     27
                      A                      A                      A
 Frequencies --   1221.2799              1229.2516              1263.3587
 Red. masses --      1.7321                 1.4463                 2.6146
 Frc consts  --      1.5222                 1.2876                 2.4587
 IR Inten    --      3.4180                13.8011                14.4724
  Atom  AN      X      Y      Z        X      Y      Z        X      Y      Z
     1   8    -0.02  -0.01  -0.01     0.01   0.04   0.00    -0.03  -0.02  -0.01
     2   6    -0.03  -0.00   0.03     0.04  -0.03   0.02    -0.03   0.01  -0.03
     3   6     0.02  -0.00   0.02    -0.09  -0.05   0.04    -0.01  -0.09   0.03
     4   6    -0.00   0.02  -0.10     0.09   0.02  -0.04     0.02   0.06   0.04
     5   6    -0.02  -0.09   0.13    -0.02   0.02  -0.02    -0.08  -0.15  -0.10
     6   6     0.02  -0.00  -0.03     0.00  -0.01  -0.01     0.04  -0.00   0.01
     7   6    -0.04   0.03  -0.02     0.01   0.02  -0.00    -0.05   0.03   0.04
     8   6     0.03  -0.06  -0.01    -0.02   0.04   0.01     0.06  -0.10  -0.03
     9   7     0.05   0.11  -0.01     0.02  -0.08   0.00     0.07   0.22   0.06
    10   1     0.15   0.28  -0.07     0.15   0.64  -0.09     0.10   0.20  -0.03
    11   1    -0.18  -0.37   0.03    -0.17  -0.09   0.02     0.07   0.36  -0.05
    12   1     0.04  -0.06   0.10    -0.54   0.01  -0.08    -0.30   0.11  -0.15
    13   1    -0.24   0.18  -0.14     0.22   0.11  -0.02     0.25  -0.15   0.07
    14   1     0.13   0.12   0.08    -0.14  -0.22   0.05    -0.10  -0.04  -0.11
    15   1     0.36  -0.24  -0.11     0.03  -0.01  -0.01    -0.38   0.28   0.09
    16   1    -0.36   0.31   0.14    -0.02   0.01  -0.00     0.22  -0.15  -0.08
    17   1    -0.09  -0.11   0.07     0.00   0.02  -0.00    -0.15  -0.17   0.05
    18   1     0.14  -0.09  -0.01    -0.22   0.08   0.07     0.22  -0.13  -0.12
                     28                     29                     30
                      A                      A                      A
 Frequencies --   1307.5440              1313.3210              1320.1721
 Red. masses --      1.4392                 1.4573                 1.3707
 Frc consts  --      1.4498                 1.4810                 1.4075
 IR Inten    --      8.7695                33.7086                 9.7767
  Atom  AN      X      Y      Z        X      Y      Z        X      Y      Z
     1   8     0.00   0.00  -0.00     0.00   0.02   0.00     0.01   0.01   0.01
     2   6    -0.01   0.00   0.01     0.07  -0.04   0.01    -0.03   0.02  -0.02
     3   6     0.01  -0.02   0.02    -0.02  -0.07   0.01    -0.02  -0.14  -0.02
     4   6    -0.05  -0.01  -0.06    -0.05   0.00  -0.03     0.02   0.05   0.03
     5   6    -0.02  -0.01  -0.02     0.01   0.05   0.01     0.01  -0.01   0.04
     6   6    -0.09   0.12   0.05     0.05  -0.03  -0.02    -0.04   0.02   0.00
     7   6     0.02  -0.05  -0.01     0.01  -0.07  -0.00     0.00   0.03  -0.01
     8   6     0.03   0.02  -0.01    -0.06  -0.00   0.01     0.02   0.01  -0.00
     9   7    -0.02   0.03   0.02    -0.08   0.05   0.01     0.02  -0.04  -0.01
    10   1     0.11   0.14  -0.04     0.10   0.30  -0.05     0.01   0.25   0.00
    11   1    -0.06  -0.11   0.01     0.09   0.25  -0.03     0.23   0.58  -0.10
    12   1     0.20  -0.04   0.07     0.36  -0.01   0.07     0.24   0.08  -0.03
    13   1     0.22   0.07  -0.00    -0.02   0.05  -0.02    -0.51  -0.05  -0.07
    14   1     0.28  -0.40   0.06    -0.02  -0.37   0.12     0.01   0.11   0.01
    15   1     0.24  -0.32  -0.10    -0.12   0.20   0.06     0.18  -0.18  -0.06
    16   1     0.44  -0.40  -0.15    -0.18   0.21   0.05     0.04  -0.08   0.00
    17   1     0.01  -0.09  -0.00     0.22   0.35  -0.05    -0.08  -0.16   0.02
    18   1     0.10   0.01  -0.04     0.40  -0.10  -0.12    -0.21   0.06   0.07
                     31                     32                     33
                      A                      A                      A
 Frequencies --   1342.5276              1378.0371              1382.0567
 Red. masses --      1.3159                 1.7134                 1.6953
 Frc consts  --      1.3973                 1.9171                 1.9078
 IR Inten    --      2.6800                67.9408                37.0332
  Atom  AN      X      Y      Z        X      Y      Z        X      Y      Z
     1   8     0.01   0.01   0.00     0.00   0.03   0.01     0.00  -0.00  -0.00
     2   6    -0.01   0.01   0.00     0.11  -0.07   0.01    -0.05   0.02  -0.01
     3   6     0.01  -0.05   0.03    -0.04   0.02  -0.01     0.01  -0.03   0.01
     4   6    -0.10   0.01  -0.04     0.07   0.01   0.01    -0.08   0.04   0.01
     5   6    -0.02   0.00   0.01    -0.07  -0.09   0.03     0.09  -0.10   0.01
     6   6     0.03  -0.04   0.02     0.01   0.06   0.02    -0.03   0.05  -0.02
     7   6     0.01   0.06   0.00     0.02  -0.07  -0.00    -0.02  -0.08   0.00
     8   6     0.02  -0.02  -0.00    -0.03   0.02   0.01    -0.07   0.08   0.02
     9   7    -0.02  -0.05  -0.03    -0.10   0.01  -0.04     0.08  -0.04  -0.02
    10   1     0.14   0.23  -0.05    -0.03   0.04  -0.01     0.03   0.13   0.02
    11   1    -0.04  -0.01  -0.01     0.03   0.03   0.02    -0.06   0.04  -0.03
    12   1     0.34  -0.00   0.06    -0.29   0.02  -0.05     0.07   0.08  -0.06
    13   1     0.48   0.02   0.07    -0.22  -0.01  -0.04     0.41  -0.06   0.10
    14   1     0.45   0.37  -0.12     0.51   0.59  -0.19    -0.49   0.49  -0.10
    15   1    -0.19   0.16   0.08    -0.03  -0.02  -0.02     0.16  -0.13  -0.08
    16   1    -0.03   0.08  -0.01     0.17  -0.09  -0.04    -0.01  -0.04   0.03
    17   1    -0.08  -0.13   0.01     0.15   0.20  -0.04     0.13   0.26  -0.04
    18   1    -0.28   0.04   0.08     0.20  -0.02  -0.05     0.30   0.01  -0.07
                     34                     35                     36
                      A                      A                      A
 Frequencies --   1440.9611              1499.2579              1519.0181
 Red. masses --      3.0271                 1.0876                 1.1049
 Frc consts  --      3.7032                 1.4404                 1.5021
 IR Inten    --    217.2369                 2.1759                 1.0247
  Atom  AN      X      Y      Z        X      Y      Z        X      Y      Z
     1   8     0.00  -0.03  -0.00    -0.00  -0.00  -0.00     0.00  -0.00   0.00
     2   6    -0.14   0.08  -0.03    -0.01   0.01   0.00    -0.01   0.00  -0.00
     3   6     0.01  -0.02   0.00    -0.08   0.02   0.01     0.01  -0.00   0.00
     4   6     0.05   0.01  -0.02    -0.01  -0.01   0.01    -0.00  -0.03   0.02
     5   6    -0.18   0.05  -0.00     0.00  -0.00   0.00    -0.01   0.01   0.00
     6   6     0.05  -0.02   0.02     0.00   0.00  -0.00     0.06   0.05  -0.03
     7   6    -0.07  -0.08   0.02    -0.00  -0.00   0.00    -0.01  -0.01   0.00
     8   6    -0.09   0.09   0.03    -0.00   0.00   0.00     0.01   0.01  -0.00
     9   7     0.26  -0.09  -0.00     0.01  -0.00  -0.00     0.01  -0.00   0.00
    10   1    -0.01  -0.05   0.02     0.43  -0.17  -0.51    -0.06   0.02   0.08
    11   1    -0.03   0.00  -0.02     0.58  -0.12   0.33    -0.09   0.01  -0.05
    12   1     0.01  -0.04   0.09     0.03   0.07  -0.17     0.06   0.08  -0.26
    13   1    -0.19  -0.05  -0.06     0.01   0.18   0.02     0.01   0.30   0.02
    14   1     0.68  -0.18   0.01    -0.02   0.01   0.00     0.04  -0.03   0.01
    15   1    -0.14   0.18   0.08    -0.01  -0.02  -0.01    -0.47  -0.37  -0.20
    16   1     0.04   0.10  -0.08    -0.01  -0.01   0.02    -0.19  -0.30   0.53
    17   1     0.11   0.31  -0.03     0.00   0.01   0.00     0.01   0.03   0.00
    18   1     0.29   0.02  -0.07     0.01   0.00  -0.00    -0.01   0.01   0.00
                     37                     38                     39
                      A                      A                      A
 Frequencies --   1528.1636              1682.8326              1821.4741
 Red. masses --      1.0980                 5.6971                12.3604
 Frc consts  --      1.5107                 9.5058                24.1618
 IR Inten    --      3.1781                33.2685               470.3582
  Atom  AN      X      Y      Z        X      Y      Z        X      Y      Z
     1   8     0.00   0.00   0.00     0.01   0.01   0.00    -0.26  -0.42  -0.09
     2   6    -0.00  -0.00  -0.00    -0.01  -0.01   0.00     0.44   0.68   0.15
     3   6     0.02  -0.01  -0.00     0.00  -0.00   0.00    -0.02  -0.06  -0.01
     4   6    -0.00  -0.07   0.04    -0.01   0.00  -0.00    -0.01  -0.02  -0.00
     5   6    -0.01  -0.01   0.00     0.03  -0.01   0.00    -0.02  -0.02   0.00
     6   6    -0.02  -0.02   0.01     0.04   0.02  -0.01     0.00   0.00  -0.00
     7   6     0.00  -0.00   0.00    -0.36  -0.26   0.08     0.00  -0.02  -0.00
     8   6    -0.00  -0.00   0.00     0.43   0.16  -0.09     0.01   0.03   0.00
     9   7     0.01   0.01  -0.00    -0.08  -0.01  -0.00    -0.06  -0.07  -0.01
    10   1    -0.09   0.03   0.12     0.01   0.01  -0.01     0.00   0.21   0.03
    11   1    -0.12   0.03  -0.07     0.01  -0.00  -0.00    -0.01  -0.01  -0.01
    12   1     0.09   0.18  -0.58     0.02  -0.01   0.03    -0.02  -0.02  -0.02
    13   1    -0.01   0.62   0.05     0.01  -0.02  -0.00     0.01   0.02   0.01
    14   1     0.02   0.01  -0.01    -0.03  -0.01   0.01     0.02   0.06  -0.04
    15   1     0.22   0.18   0.10     0.01   0.21   0.07     0.01   0.01   0.01
    16   1     0.10   0.15  -0.26    -0.08   0.25  -0.07    -0.00   0.01  -0.01
    17   1    -0.00  -0.00  -0.00    -0.12   0.40   0.03     0.03   0.05  -0.01
    18   1     0.02  -0.01  -0.01    -0.33   0.39   0.09     0.03   0.05   0.00
                     40                     41                     42
                      A                      A                      A
 Frequencies --   3012.6609              3021.0353              3057.2483
 Red. masses --      1.0749                 1.0827                 1.0709
 Frc consts  --      5.7481                 5.8221                 5.8974
 IR Inten    --     27.7647                41.7097                 8.7905
  Atom  AN      X      Y      Z        X      Y      Z        X      Y      Z
     1   8     0.00   0.00   0.00    -0.00  -0.00  -0.00     0.00  -0.00  -0.00
     2   6    -0.00  -0.00  -0.00     0.00  -0.00  -0.00     0.00   0.00  -0.00
     3   6     0.00  -0.00  -0.00    -0.00   0.00  -0.00     0.04  -0.02  -0.05
     4   6    -0.00  -0.00   0.00    -0.00   0.00   0.01    -0.01  -0.00   0.02
     5   6     0.00   0.01   0.03    -0.00  -0.02  -0.08    -0.00   0.00   0.00
     6   6     0.01   0.03  -0.06     0.01   0.02  -0.02    -0.00  -0.00   0.00
     7   6    -0.00   0.00   0.00     0.00   0.00   0.00     0.00  -0.00  -0.00
     8   6    -0.00   0.00   0.00    -0.00   0.00   0.00     0.00  -0.00   0.00
     9   7     0.00   0.00  -0.00    -0.00  -0.00   0.00    -0.00  -0.00  -0.00
    10   1    -0.00   0.00  -0.00     0.00  -0.00   0.00    -0.15   0.02  -0.18
    11   1    -0.00   0.00   0.01    -0.01   0.00   0.01    -0.36   0.21   0.81
    12   1     0.00   0.02   0.01    -0.00  -0.03  -0.01     0.00   0.04   0.02
    13   1     0.01  -0.00  -0.01     0.03   0.00  -0.13     0.06   0.01  -0.31
    14   1    -0.02  -0.09  -0.34     0.06   0.23   0.88    -0.00  -0.01  -0.04
    15   1    -0.04  -0.34   0.85    -0.01  -0.12   0.30     0.00   0.01  -0.02
    16   1    -0.09  -0.06  -0.10    -0.12  -0.09  -0.11     0.01   0.01   0.01
    17   1     0.01  -0.00  -0.00     0.00   0.00  -0.00    -0.00   0.00   0.00
    18   1    -0.00  -0.01  -0.00     0.00   0.00  -0.00     0.00   0.00   0.00
                     43                     44                     45
                      A                      A                      A
 Frequencies --   3065.3523              3094.3937              3123.1429
 Red. masses --      1.0633                 1.0916                 1.1009
 Frc consts  --      5.8866                 6.1581                 6.3266
 IR Inten    --     34.0366                28.9735                33.3555
  Atom  AN      X      Y      Z        X      Y      Z        X      Y      Z
     1   8     0.00   0.00  -0.00    -0.00  -0.00  -0.00    -0.00  -0.00  -0.00
     2   6     0.00  -0.00  -0.00     0.00   0.00  -0.00     0.00   0.00  -0.00
     3   6     0.02  -0.01  -0.01    -0.00   0.00   0.00     0.01  -0.00   0.01
     4   6     0.01   0.04  -0.06    -0.00   0.01   0.00     0.01  -0.07  -0.06
     5   6     0.00  -0.00  -0.01     0.00  -0.00  -0.01    -0.00  -0.00  -0.01
     6   6     0.00   0.00  -0.00    -0.05  -0.03  -0.06    -0.00  -0.00  -0.00
     7   6    -0.00   0.00   0.00     0.00  -0.00  -0.00     0.00  -0.00  -0.00
     8   6     0.00   0.00  -0.00     0.00   0.00  -0.00    -0.00   0.00  -0.00
     9   7    -0.00  -0.00   0.00     0.00   0.00  -0.00    -0.00   0.00   0.00
    10   1    -0.10   0.02  -0.11     0.00  -0.00   0.00    -0.12   0.02  -0.12
    11   1    -0.11   0.06   0.24     0.00  -0.00  -0.01    -0.02   0.01   0.05
    12   1     0.02  -0.40  -0.17     0.00  -0.07  -0.03    -0.04   0.83   0.31
    13   1    -0.16  -0.02   0.82     0.00   0.00   0.00    -0.07  -0.02   0.39
    14   1     0.01   0.02   0.08     0.01   0.03   0.12     0.01   0.02   0.09
    15   1    -0.00  -0.01   0.04    -0.02  -0.08   0.16    -0.00  -0.01   0.02
    16   1    -0.03  -0.02  -0.03     0.65   0.46   0.55     0.04   0.03   0.03
    17   1     0.00   0.00  -0.00    -0.02   0.01   0.01    -0.00   0.00   0.00
    18   1    -0.00  -0.00  -0.00     0.00   0.00  -0.00     0.00   0.00  -0.00
                     46                     47                     48
                      A                      A                      A
 Frequencies --   3142.4613              3245.6195              3275.9844
 Red. masses --      1.0962                 1.0894                 1.1030
 Frc consts  --      6.3778                 6.7612                 6.9742
 IR Inten    --     13.3422                 1.9927                 7.2956
  Atom  AN      X      Y      Z        X      Y      Z        X      Y      Z
     1   8     0.00   0.00   0.00     0.00   0.00   0.00     0.00   0.00   0.00
     2   6    -0.00  -0.00  -0.00    -0.00  -0.00  -0.00    -0.00  -0.00  -0.00
     3   6    -0.05   0.00  -0.07    -0.00  -0.00  -0.00     0.00   0.00   0.00
     4   6     0.00  -0.01  -0.01     0.00  -0.00  -0.00     0.00   0.00  -0.00
     5   6     0.00  -0.00  -0.00     0.00   0.00  -0.00    -0.00   0.00   0.00
     6   6    -0.00   0.00  -0.00    -0.00  -0.00  -0.00     0.00   0.00  -0.00
     7   6    -0.00  -0.00   0.00    -0.07   0.03   0.02     0.03  -0.01  -0.01
     8   6     0.00   0.00  -0.00    -0.00  -0.03  -0.00    -0.02  -0.08   0.00
     9   7     0.00  -0.00  -0.00     0.00  -0.00  -0.00    -0.00   0.00   0.00
    10   1     0.67  -0.11   0.66     0.00  -0.00   0.00     0.00  -0.00   0.00
    11   1    -0.12   0.07   0.23    -0.00   0.00   0.00     0.00  -0.00  -0.00
    12   1    -0.01   0.10   0.04    -0.00   0.00   0.00     0.00  -0.00  -0.00
    13   1    -0.03  -0.01   0.13    -0.00  -0.00   0.00    -0.00   0.00   0.00
    14   1     0.00   0.00   0.01    -0.00   0.00   0.00    -0.00  -0.00  -0.00
    15   1    -0.00  -0.00   0.00    -0.00   0.00  -0.00    -0.00  -0.00   0.00
    16   1     0.00   0.00   0.00     0.01   0.01   0.01    -0.01  -0.01  -0.00
    17   1    -0.00   0.00   0.00     0.80  -0.41  -0.22    -0.32   0.16   0.09
    18   1    -0.00  -0.00   0.00     0.07   0.36   0.00     0.19   0.91   0.01

 -------------------
 - Thermochemistry -
 -------------------
 Temperature   298.150 Kelvin.  Pressure   1.00000 Atm.
 Atom     1 has atomic number  8 and mass  15.99491
 Atom     2 has atomic number  6 and mass  12.00000
 Atom     3 has atomic number  6 and mass  12.00000
 Atom     4 has atomic number  6 and mass  12.00000
 Atom     5 has atomic number  6 and mass  12.00000
 Atom     6 has atomic number  6 and mass  12.00000
 Atom     7 has atomic number  6 and mass  12.00000
 Atom     8 has atomic number  6 and mass  12.00000
 Atom     9 has atomic number  7 and mass  14.00307
 Atom    10 has atomic number  1 and mass   1.00783
 Atom    11 has atomic number  1 and mass   1.00783
 Atom    12 has atomic number  1 and mass   1.00783
 Atom    13 has atomic number  1 and mass   1.00783
 Atom    14 has atomic number  1 and mass   1.00783
 Atom    15 has atomic number  1 and mass   1.00783
 Atom    16 has atomic number  1 and mass   1.00783
 Atom    17 has atomic number  1 and mass   1.00783
 Atom    18 has atomic number  1 and mass   1.00783
 Molecular mass:   123.06841 amu.
 Principal axes and moments of inertia in atomic units:
                           1         2         3
     Eigenvalues --   627.758651056.297601586.28867
           X            0.99851  -0.05425  -0.00515
           Y            0.05424   0.99853  -0.00233
           Z            0.00526   0.00204   0.99998
 This molecule is an asymmetric top.
 Rotational symmetry number  1.
 Warning -- assumption of classical behavior for rotation
           may cause significant error
 Rotational temperatures (Kelvin)      0.13797     0.08200     0.05460
 Rotational constants (GHZ):           2.87490     1.70855     1.13771
 Zero-point vibrational energy     399183.7 (Joules/Mol)
                                   95.40719 (Kcal/Mol)
 Warning -- explicit consideration of   9 degrees of freedom as
           vibrations may cause significant error
 Vibrational temperatures:    170.04   196.37   250.26   443.81   607.11
          (Kelvin)            683.16   794.36   841.66   870.81   950.87
                             1017.13  1058.95  1188.12  1248.29  1326.24
                             1368.92  1382.04  1390.03  1410.29  1520.32
                             1548.55  1562.36  1626.57  1652.06  1757.15
                             1768.62  1817.69  1881.26  1889.58  1899.43
                             1931.60  1982.69  1988.47  2073.22  2157.10
                             2185.53  2198.69  2421.22  2620.69  4334.55
                             4346.60  4398.70  4410.36  4452.14  4493.51
                             4521.30  4669.72  4713.41
 
 Zero-point correction=                           0.152041 (Hartree/Particle)
 Thermal correction to Energy=                    0.159239
 Thermal correction to Enthalpy=                  0.160183
 Thermal correction to Gibbs Free Energy=         0.120255
 Sum of electronic and zero-point Energies=           -402.009405
 Sum of electronic and thermal Energies=              -402.002207
 Sum of electronic and thermal Enthalpies=            -402.001263
 Sum of electronic and thermal Free Energies=         -402.041191
 
                     E (Thermal)             CV                S
                      KCal/Mol        Cal/Mol-Kelvin    Cal/Mol-Kelvin
 Total                   99.924             28.175             84.036
 Electronic               0.000              0.000              0.000
 Translational            0.889              2.981             40.337
 Rotational               0.889              2.981             28.444
 Vibrational             98.147             22.214             15.255
 Vibration     1          0.608              1.934              3.130
 Vibration     2          0.614              1.917              2.853
 Vibration     3          0.627              1.875              2.392
 Vibration     4          0.698              1.658              1.371
 Vibration     5          0.784              1.422              0.885
 Vibration     6          0.832              1.306              0.724
 Vibration     7          0.907              1.135              0.540
 Vibration     8          0.942              1.064              0.476
 Vibration     9          0.964              1.021              0.441
                       Q            Log10(Q)             Ln(Q)
 Total Bot       0.485990D-55        -55.313373       -127.363747
 Total V=0       0.417432D+15         14.620586         33.665143
 Vib (Bot)       0.246676D-68        -68.607873       -157.975465
 Vib (Bot)    1  0.172991D+01          0.238025          0.548072
 Vib (Bot)    2  0.149121D+01          0.173540          0.399591
 Vib (Bot)    3  0.115709D+01          0.063367          0.145907
 Vib (Bot)    4  0.613568D+00         -0.212138         -0.488465
 Vib (Bot)    5  0.415497D+00         -0.381432         -0.878279
 Vib (Bot)    6  0.353795D+00         -0.451248         -1.039038
 Vib (Bot)    7  0.283666D+00         -0.547193         -1.259958
 Vib (Bot)    8  0.259189D+00         -0.586383         -1.350196
 Vib (Bot)    9  0.245379D+00         -0.610163         -1.404953
 Vib (V=0)       0.211878D+02          1.326086          3.053425
 Vib (V=0)    1  0.230072D+01          0.361864          0.833224
 Vib (V=0)    2  0.207281D+01          0.316559          0.728903
 Vib (V=0)    3  0.176050D+01          0.245635          0.565596
 Vib (V=0)    4  0.129150D+01          0.111093          0.255801
 Vib (V=0)    5  0.115011D+01          0.060738          0.139854
 Vib (V=0)    6  0.111251D+01          0.046305          0.106620
 Vib (V=0)    7  0.107486D+01          0.031353          0.072192
 Vib (V=0)    8  0.106319D+01          0.026609          0.061271
 Vib (V=0)    9  0.105697D+01          0.024061          0.055402
 Electronic      0.100000D+01          0.000000          0.000000
 Translational   0.536629D+08          7.729674         17.798232
 Rotational      0.367135D+06          5.564826         12.813486
 
                                                        $$$$Singlemol####0????
                                                             IR Spectrum
 
      33  3333333                                             1    1    111 1111111111  11111                                        
      22  1100000                                             8    6    554 4333333222  1100099999 88   77 6 655  4 4    3    111    
      74  4296521                                             2    8    219 4874210622  4387586652 62   30 6 085  7 2    0    731    
      66  2345713                                             1    3    899 1283038391  8166706112 86   67 1 552  5 2    8    468    
 
      XX  XXXXXXX                                             X    X    XXX XXXXXXXXXX  XXXXXXXXXX XX   XX X XXX  X X    X    XXX    
               X                                              X             XXX                                                      
                                                              X             X X                                                      
                                                              X             X                                                        
                                                              X             X                                                        
                                                              X             X                                                        
                                                              X             X                                                        
                                                              X             X                                                        
                                                              X             X                                                        
                                                              X                                                                      
                                                              X                                                                      
                                                              X                                                                      
                                                              X                                                                      
                                                              X                                                                      
                                                              X                                                                      
                                                              X                                                                      
                                                              X                                                                      
                                                              X                                                                      
                                                              X                                                                      
                                                              X                                                                      
 
 ***** Axes restored to original set *****
 -------------------------------------------------------------------
 Center     Atomic                   Forces (Hartrees/Bohr)
 Number     Number              X              Y              Z
 -------------------------------------------------------------------
      1        8          -0.000001743    0.000010859   -0.000000258
      2        6           0.000011466   -0.000011023    0.000001940
      3        6          -0.000025107    0.000011460    0.000002923
      4        6           0.000017797   -0.000015399   -0.000016513
      5        6           0.000006042   -0.000000970    0.000016750
      6        6          -0.000020856   -0.000028550   -0.000013264
      7        6          -0.000000385    0.000025224    0.000002962
      8        6          -0.000005723   -0.000005648   -0.000009598
      9        7           0.000008786    0.000015798    0.000006401
     10        1           0.000007162   -0.000004922    0.000000185
     11        1           0.000008882   -0.000007332   -0.000001578
     12        1          -0.000003196   -0.000005437    0.000007451
     13        1           0.000001024    0.000002987   -0.000000108
     14        1          -0.000002457   -0.000001738    0.000002383
     15        1          -0.000003343    0.000006588   -0.000001597
     16        1           0.000000815    0.000002080    0.000002482
     17        1          -0.000002181    0.000002835    0.000000460
     18        1           0.000003015    0.000003188   -0.000001019
 -------------------------------------------------------------------
 Cartesian Forces:  Max     0.000028550 RMS     0.000009926
 FormGI is forming the generalized inverse of G from B-inverse, IUseBI=4.
 Leave Link  716 at Tue Apr  9 11:55:41 2024, MaxMem=  7516192768 cpu:               0.4 elap:               0.0
 (Enter /public3/home/scg9909/software-scg9909/g16/l103.exe)

 GradGradGradGradGradGradGradGradGradGradGradGradGradGradGradGradGradGrad
 Berny optimization.
 Red2BG is reusing G-inverse.
 Internal  Forces:  Max     0.000021084 RMS     0.000004527
 Search for a local minimum.
 Step number   1 out of a maximum of    2
 All quantities printed in internal units (Hartrees-Bohrs-Radians)
 Second derivative matrix not updated -- analytic derivatives used.
 ITU=  0
     Eigenvalues ---    0.00195   0.00339   0.00501   0.01083   0.01568
     Eigenvalues ---    0.01748   0.02117   0.02587   0.03873   0.03966
     Eigenvalues ---    0.04292   0.04436   0.04689   0.04858   0.05322
     Eigenvalues ---    0.05903   0.06283   0.06761   0.06996   0.07561
     Eigenvalues ---    0.08532   0.09212   0.09968   0.10801   0.11592
     Eigenvalues ---    0.17757   0.19405   0.20417   0.20870   0.22418
     Eigenvalues ---    0.23212   0.24823   0.26661   0.29250   0.30643
     Eigenvalues ---    0.32283   0.32777   0.33314   0.33478   0.34214
     Eigenvalues ---    0.34550   0.34928   0.35702   0.37309   0.37816
     Eigenvalues ---    0.38746   0.55715   0.85013
 Angle between quadratic step and forces=  72.60 degrees.
 Linear search not attempted -- first point.
 Iteration  1 RMS(Cart)=  0.00012840 RMS(Int)=  0.00000001
 Iteration  2 RMS(Cart)=  0.00000001 RMS(Int)=  0.00000000
 ITry= 1 IFail=0 DXMaxC= 5.46D-04 DCOld= 1.00D+10 DXMaxT= 3.00D-01 DXLimC= 3.00D+00 Rises=F
 Variable       Old X    -DE/DX   Delta X   Delta X   Delta X     New X
                                 (Linear)    (Quad)   (Total)
    R1        2.30106   0.00001   0.00000   0.00001   0.00001   2.30108
    R2        2.90266   0.00001   0.00000   0.00004   0.00004   2.90269
    R3        2.60439  -0.00001   0.00000  -0.00002  -0.00002   2.60438
    R4        2.91645   0.00001   0.00000   0.00004   0.00004   2.91649
    R5        2.06363  -0.00001   0.00000  -0.00003  -0.00003   2.06360
    R6        2.07492  -0.00000   0.00000  -0.00000  -0.00000   2.07492
    R7        2.90744  -0.00001   0.00000  -0.00007  -0.00007   2.90737
    R8        2.06629   0.00000   0.00000   0.00001   0.00001   2.06630
    R9        2.07219   0.00000   0.00000   0.00001   0.00001   2.07220
   R10        2.92875  -0.00002   0.00000  -0.00009  -0.00009   2.92866
   R11        2.78664   0.00001   0.00000   0.00004   0.00004   2.78668
   R12        2.07690  -0.00000   0.00000   0.00000   0.00000   2.07690
   R13        2.87565   0.00002   0.00000   0.00009   0.00009   2.87573
   R14        2.08057  -0.00000   0.00000  -0.00001  -0.00001   2.08056
   R15        2.06875  -0.00000   0.00000  -0.00001  -0.00001   2.06874
   R16        2.53004  -0.00001   0.00000  -0.00001  -0.00001   2.53003
   R17        2.04586  -0.00000   0.00000  -0.00000  -0.00000   2.04585
   R18        2.65127  -0.00001   0.00000  -0.00002  -0.00002   2.65125
   R19        2.04419   0.00000   0.00000   0.00001   0.00001   2.04419
    A1        2.23848   0.00000   0.00000   0.00001   0.00001   2.23849
    A2        2.20001  -0.00000   0.00000  -0.00000  -0.00000   2.20001
    A3        1.84465   0.00000   0.00000  -0.00001  -0.00001   1.84464
    A4        1.81047   0.00000   0.00000  -0.00006  -0.00006   1.81041
    A5        1.92051   0.00000   0.00000   0.00006   0.00006   1.92057
    A6        1.90529   0.00000   0.00000  -0.00002  -0.00002   1.90528
    A7        2.00028  -0.00000   0.00000  -0.00000  -0.00000   2.00028
    A8        1.94623  -0.00001   0.00000  -0.00010  -0.00010   1.94613
    A9        1.87933   0.00001   0.00000   0.00012   0.00012   1.87944
   A10        1.79651  -0.00000   0.00000  -0.00003  -0.00003   1.79648
   A11        1.98409   0.00000   0.00000   0.00004   0.00004   1.98414
   A12        1.91637  -0.00000   0.00000  -0.00007  -0.00007   1.91630
   A13        1.96882   0.00000   0.00000   0.00011   0.00011   1.96893
   A14        1.91013  -0.00000   0.00000  -0.00004  -0.00004   1.91009
   A15        1.88624  -0.00000   0.00000  -0.00002  -0.00002   1.88622
   A16        2.11518  -0.00000   0.00000  -0.00004  -0.00004   2.11515
   A17        1.79258   0.00001   0.00000  -0.00000  -0.00000   1.79257
   A18        1.92173  -0.00000   0.00000  -0.00002  -0.00002   1.92170
   A19        1.81260  -0.00000   0.00000   0.00001   0.00001   1.81262
   A20        1.91218   0.00000   0.00000   0.00004   0.00004   1.91223
   A21        1.89177  -0.00000   0.00000   0.00001   0.00001   1.89178
   A22        1.78881  -0.00000   0.00000  -0.00000  -0.00000   1.78881
   A23        1.95592  -0.00000   0.00000  -0.00007  -0.00007   1.95585
   A24        1.94399   0.00000   0.00000   0.00008   0.00008   1.94407
   A25        1.93479  -0.00000   0.00000  -0.00006  -0.00006   1.93472
   A26        1.97672   0.00000   0.00000   0.00002   0.00002   1.97673
   A27        1.86560   0.00000   0.00000   0.00004   0.00004   1.86564
   A28        1.93027   0.00000   0.00000  -0.00000  -0.00000   1.93026
   A29        2.16528   0.00000   0.00000   0.00000   0.00000   2.16528
   A30        2.18575  -0.00000   0.00000   0.00000   0.00000   2.18575
   A31        1.93773  -0.00000   0.00000  -0.00001  -0.00001   1.93772
   A32        2.26919  -0.00000   0.00000  -0.00003  -0.00003   2.26916
   A33        2.07594   0.00001   0.00000   0.00004   0.00004   2.07598
   A34        1.99695  -0.00000   0.00000  -0.00002  -0.00002   1.99693
   A35        2.26003  -0.00000   0.00000   0.00004   0.00004   2.26007
   A36        1.91898   0.00001   0.00000   0.00000   0.00000   1.91898
    D1       -2.71979  -0.00000   0.00000   0.00017   0.00017  -2.71962
    D2       -0.57214  -0.00000   0.00000   0.00016   0.00016  -0.57198
    D3        1.48676   0.00000   0.00000   0.00033   0.00033   1.48708
    D4        0.41267  -0.00000   0.00000   0.00019   0.00019   0.41286
    D5        2.56033  -0.00000   0.00000   0.00018   0.00018   2.56050
    D6       -1.66396   0.00000   0.00000   0.00034   0.00034  -1.66362
    D7        3.03736   0.00000   0.00000  -0.00009  -0.00009   3.03727
    D8        0.43201  -0.00000   0.00000  -0.00012  -0.00012   0.43189
    D9       -0.09536  -0.00000   0.00000  -0.00011  -0.00011  -0.09547
   D10       -2.70072  -0.00000   0.00000  -0.00014  -0.00014  -2.70085
   D11       -0.55908   0.00000   0.00000  -0.00021  -0.00021  -0.55929
   D12       -2.69433  -0.00000   0.00000  -0.00034  -0.00034  -2.69467
   D13        1.47363  -0.00000   0.00000  -0.00030  -0.00030   1.47333
   D14       -2.65332   0.00000   0.00000  -0.00024  -0.00024  -2.65356
   D15        1.49462  -0.00000   0.00000  -0.00037  -0.00037   1.49424
   D16       -0.62062  -0.00000   0.00000  -0.00033  -0.00033  -0.62094
   D17        1.48922   0.00000   0.00000  -0.00031  -0.00031   1.48892
   D18       -0.64603  -0.00000   0.00000  -0.00044  -0.00044  -0.64647
   D19       -2.76126  -0.00000   0.00000  -0.00040  -0.00040  -2.76166
   D20        2.50469  -0.00000   0.00000   0.00015   0.00015   2.50484
   D21        0.49663  -0.00000   0.00000   0.00015   0.00015   0.49678
   D22       -1.51528  -0.00000   0.00000   0.00015   0.00015  -1.51513
   D23       -1.63300   0.00000   0.00000   0.00024   0.00024  -1.63276
   D24        2.64212   0.00000   0.00000   0.00024   0.00024   2.64236
   D25        0.63021  -0.00000   0.00000   0.00025   0.00025   0.63045
   D26        0.46754   0.00000   0.00000   0.00026   0.00026   0.46780
   D27       -1.54052   0.00000   0.00000   0.00026   0.00026  -1.54026
   D28        2.73075   0.00000   0.00000   0.00026   0.00026   2.73102
   D29       -2.23943  -0.00000   0.00000   0.00003   0.00003  -2.23940
   D30       -0.16426  -0.00000   0.00000  -0.00008  -0.00008  -0.16434
   D31        1.92484  -0.00000   0.00000  -0.00002  -0.00002   1.92482
   D32       -0.24162   0.00000   0.00000   0.00002   0.00002  -0.24160
   D33        1.83356  -0.00000   0.00000  -0.00010  -0.00010   1.83346
   D34       -2.36052   0.00000   0.00000  -0.00004  -0.00004  -2.36056
   D35        1.77641   0.00000   0.00000   0.00005   0.00005   1.77646
   D36       -2.43160  -0.00000   0.00000  -0.00006  -0.00006  -2.43166
   D37       -0.34250   0.00000   0.00000  -0.00000  -0.00000  -0.34250
   D38       -0.26202  -0.00000   0.00000  -0.00003  -0.00003  -0.26206
   D39        2.44673  -0.00000   0.00000   0.00000   0.00000   2.44673
   D40       -2.47935   0.00000   0.00000   0.00000   0.00000  -2.47934
   D41        0.22940   0.00000   0.00000   0.00004   0.00004   0.22944
   D42        1.77144  -0.00000   0.00000  -0.00006  -0.00006   1.77139
   D43       -1.80300  -0.00000   0.00000  -0.00002  -0.00002  -1.80302
   D44        0.18959  -0.00000   0.00000  -0.00006  -0.00006   0.18953
   D45       -3.01514  -0.00000   0.00000  -0.00000  -0.00000  -3.01514
   D46       -1.90037   0.00000   0.00000   0.00005   0.00005  -1.90032
   D47        1.17808   0.00000   0.00000   0.00011   0.00011   1.17819
   D48        2.28592   0.00000   0.00000   0.00004   0.00004   2.28596
   D49       -0.91881   0.00000   0.00000   0.00010   0.00010  -0.91871
   D50       -0.05375   0.00001   0.00000   0.00009   0.00009  -0.05366
   D51        3.05982   0.00000   0.00000   0.00004   0.00004   3.05986
   D52       -3.13130   0.00000   0.00000   0.00003   0.00003  -3.13127
   D53       -0.01773   0.00000   0.00000  -0.00002  -0.00002  -0.01775
   D54        2.50580  -0.00000   0.00000  -0.00006  -0.00006   2.50574
   D55       -0.11806  -0.00000   0.00000  -0.00008  -0.00008  -0.11814
   D56       -0.61128  -0.00000   0.00000  -0.00001  -0.00001  -0.61129
   D57        3.04805   0.00000   0.00000  -0.00003  -0.00003   3.04802
         Item               Value     Threshold  Converged?
 Maximum Force            0.000021     0.000450     YES
 RMS     Force            0.000005     0.000300     YES
 Maximum Displacement     0.000546     0.001800     YES
 RMS     Displacement     0.000128     0.001200     YES
 Predicted change in Energy=-1.022478D-08
 Optimization completed.
    -- Stationary point found.
                           ----------------------------
                           !   Optimized Parameters   !
                           ! (Angstroms and Degrees)  !
 --------------------------                            --------------------------
 ! Name  Definition              Value          Derivative Info.                !
 --------------------------------------------------------------------------------
 ! R1    R(1,2)                  1.2177         -DE/DX =    0.0                 !
 ! R2    R(2,3)                  1.536          -DE/DX =    0.0                 !
 ! R3    R(2,9)                  1.3782         -DE/DX =    0.0                 !
 ! R4    R(3,4)                  1.5433         -DE/DX =    0.0                 !
 ! R5    R(3,10)                 1.092          -DE/DX =    0.0                 !
 ! R6    R(3,11)                 1.098          -DE/DX =    0.0                 !
 ! R7    R(4,5)                  1.5385         -DE/DX =    0.0                 !
 ! R8    R(4,12)                 1.0934         -DE/DX =    0.0                 !
 ! R9    R(4,13)                 1.0966         -DE/DX =    0.0                 !
 ! R10   R(5,6)                  1.5498         -DE/DX =    0.0                 !
 ! R11   R(5,9)                  1.4746         -DE/DX =    0.0                 !
 ! R12   R(5,14)                 1.099          -DE/DX =    0.0                 !
 ! R13   R(6,7)                  1.5217         -DE/DX =    0.0                 !
 ! R14   R(6,15)                 1.101          -DE/DX =    0.0                 !
 ! R15   R(6,16)                 1.0947         -DE/DX =    0.0                 !
 ! R16   R(7,8)                  1.3388         -DE/DX =    0.0                 !
 ! R17   R(7,17)                 1.0826         -DE/DX =    0.0                 !
 ! R18   R(8,9)                  1.403          -DE/DX =    0.0                 !
 ! R19   R(8,18)                 1.0817         -DE/DX =    0.0                 !
 ! A1    A(1,2,3)              128.2553         -DE/DX =    0.0                 !
 ! A2    A(1,2,9)              126.0516         -DE/DX =    0.0                 !
 ! A3    A(3,2,9)              105.6909         -DE/DX =    0.0                 !
 ! A4    A(2,3,4)              103.7321         -DE/DX =    0.0                 !
 ! A5    A(2,3,10)             110.0373         -DE/DX =    0.0                 !
 ! A6    A(2,3,11)             109.1652         -DE/DX =    0.0                 !
 ! A7    A(4,3,10)             114.6075         -DE/DX =    0.0                 !
 ! A8    A(4,3,11)             111.5106         -DE/DX =    0.0                 !
 ! A9    A(10,3,11)            107.6775         -DE/DX =    0.0                 !
 ! A10   A(3,4,5)              102.9326         -DE/DX =    0.0                 !
 ! A11   A(3,4,12)             113.6802         -DE/DX =    0.0                 !
 ! A12   A(3,4,13)             109.8001         -DE/DX =    0.0                 !
 ! A13   A(5,4,12)             112.8051         -DE/DX =    0.0                 !
 ! A14   A(5,4,13)             109.4426         -DE/DX =    0.0                 !
 ! A15   A(12,4,13)            108.0734         -DE/DX =    0.0                 !
 ! A16   A(4,5,6)              121.1911         -DE/DX =    0.0                 !
 ! A17   A(4,5,9)              102.7073         -DE/DX =    0.0                 !
 ! A18   A(4,5,14)             110.1068         -DE/DX =    0.0                 !
 ! A19   A(6,5,9)              103.8545         -DE/DX =    0.0                 !
 ! A20   A(6,5,14)             109.5599         -DE/DX =    0.0                 !
 ! A21   A(9,5,14)             108.3902         -DE/DX =    0.0                 !
 ! A22   A(5,6,7)              102.4913         -DE/DX =    0.0                 !
 ! A23   A(5,6,15)             112.066          -DE/DX =    0.0                 !
 ! A24   A(5,6,16)             111.3827         -DE/DX =    0.0                 !
 ! A25   A(7,6,15)             110.8552         -DE/DX =    0.0                 !
 ! A26   A(7,6,16)             113.2574         -DE/DX =    0.0                 !
 ! A27   A(15,6,16)            106.8909         -DE/DX =    0.0                 !
 ! A28   A(6,7,8)              110.5961         -DE/DX =    0.0                 !
 ! A29   A(6,7,17)             124.0613         -DE/DX =    0.0                 !
 ! A30   A(8,7,17)             125.2341         -DE/DX =    0.0                 !
 ! A31   A(7,8,9)              111.0239         -DE/DX =    0.0                 !
 ! A32   A(7,8,18)             130.0151         -DE/DX =    0.0                 !
 ! A33   A(9,8,18)             118.9426         -DE/DX =    0.0                 !
 ! A34   A(2,9,5)              114.417          -DE/DX =    0.0                 !
 ! A35   A(2,9,8)              129.4902         -DE/DX =    0.0                 !
 ! A36   A(5,9,8)              109.9494         -DE/DX =    0.0                 !
 ! D1    D(1,2,3,4)           -155.8326         -DE/DX =    0.0                 !
 ! D2    D(1,2,3,10)           -32.781          -DE/DX =    0.0                 !
 ! D3    D(1,2,3,11)            85.1849         -DE/DX =    0.0                 !
 ! D4    D(9,2,3,4)             23.6444         -DE/DX =    0.0                 !
 ! D5    D(9,2,3,10)           146.696          -DE/DX =    0.0                 !
 ! D6    D(9,2,3,11)           -95.3381         -DE/DX =    0.0                 !
 ! D7    D(1,2,9,5)            174.028          -DE/DX =    0.0                 !
 ! D8    D(1,2,9,8)             24.7523         -DE/DX =    0.0                 !
 ! D9    D(3,2,9,5)             -5.464          -DE/DX =    0.0                 !
 ! D10   D(3,2,9,8)           -154.7396         -DE/DX =    0.0                 !
 ! D11   D(2,3,4,5)            -32.0329         -DE/DX =    0.0                 !
 ! D12   D(2,3,4,12)          -154.3737         -DE/DX =    0.0                 !
 ! D13   D(2,3,4,13)            84.4325         -DE/DX =    0.0                 !
 ! D14   D(10,3,4,5)          -152.0241         -DE/DX =    0.0                 !
 ! D15   D(10,3,4,12)           85.6351         -DE/DX =    0.0                 !
 ! D16   D(10,3,4,13)          -35.5587         -DE/DX =    0.0                 !
 ! D17   D(11,3,4,5)            85.3262         -DE/DX =    0.0                 !
 ! D18   D(11,3,4,12)          -37.0146         -DE/DX =    0.0                 !
 ! D19   D(11,3,4,13)         -158.2084         -DE/DX =    0.0                 !
 ! D20   D(3,4,5,6)            143.5082         -DE/DX =    0.0                 !
 ! D21   D(3,4,5,9)             28.4546         -DE/DX =    0.0                 !
 ! D22   D(3,4,5,14)           -86.8194         -DE/DX =    0.0                 !
 ! D23   D(12,4,5,6)           -93.5641         -DE/DX =    0.0                 !
 ! D24   D(12,4,5,9)           151.3823         -DE/DX =    0.0                 !
 ! D25   D(12,4,5,14)           36.1083         -DE/DX =    0.0                 !
 ! D26   D(13,4,5,6)            26.7882         -DE/DX =    0.0                 !
 ! D27   D(13,4,5,9)           -88.2654         -DE/DX =    0.0                 !
 ! D28   D(13,4,5,14)          156.4606         -DE/DX =    0.0                 !
 ! D29   D(4,5,6,7)           -128.3102         -DE/DX =    0.0                 !
 ! D30   D(4,5,6,15)            -9.4114         -DE/DX =    0.0                 !
 ! D31   D(4,5,6,16)           110.2854         -DE/DX =    0.0                 !
 ! D32   D(9,5,6,7)            -13.8437         -DE/DX =    0.0                 !
 ! D33   D(9,5,6,15)           105.055          -DE/DX =    0.0                 !
 ! D34   D(9,5,6,16)          -135.2481         -DE/DX =    0.0                 !
 ! D35   D(14,5,6,7)           101.7806         -DE/DX =    0.0                 !
 ! D36   D(14,5,6,15)         -139.3207         -DE/DX =    0.0                 !
 ! D37   D(14,5,6,16)          -19.6238         -DE/DX =    0.0                 !
 ! D38   D(4,5,9,2)            -15.0128         -DE/DX =    0.0                 !
 ! D39   D(4,5,9,8)            140.1871         -DE/DX =    0.0                 !
 ! D40   D(6,5,9,2)           -142.0562         -DE/DX =    0.0                 !
 ! D41   D(6,5,9,8)             13.1436         -DE/DX =    0.0                 !
 ! D42   D(14,5,9,2)           101.4962         -DE/DX =    0.0                 !
 ! D43   D(14,5,9,8)          -103.304          -DE/DX =    0.0                 !
 ! D44   D(5,6,7,8)             10.8628         -DE/DX =    0.0                 !
 ! D45   D(5,6,7,17)          -172.755          -DE/DX =    0.0                 !
 ! D46   D(15,6,7,8)          -108.8834         -DE/DX =    0.0                 !
 ! D47   D(15,6,7,17)           67.4989         -DE/DX =    0.0                 !
 ! D48   D(16,6,7,8)           130.9738         -DE/DX =    0.0                 !
 ! D49   D(16,6,7,17)          -52.6439         -DE/DX =    0.0                 !
 ! D50   D(6,7,8,9)             -3.0799         -DE/DX =    0.0                 !
 ! D51   D(6,7,8,18)           175.3149         -DE/DX =    0.0                 !
 ! D52   D(17,7,8,9)          -179.4105         -DE/DX =    0.0                 !
 ! D53   D(17,7,8,18)           -1.0157         -DE/DX =    0.0                 !
 ! D54   D(7,8,9,2)            143.5717         -DE/DX =    0.0                 !
 ! D55   D(7,8,9,5)             -6.7645         -DE/DX =    0.0                 !
 ! D56   D(18,8,9,2)           -35.0235         -DE/DX =    0.0                 !
 ! D57   D(18,8,9,5)           174.6404         -DE/DX =    0.0                 !
 --------------------------------------------------------------------------------
 GradGradGradGradGradGradGradGradGradGradGradGradGradGradGradGradGradGrad

 Leave Link  103 at Tue Apr  9 11:55:41 2024, MaxMem=  7516192768 cpu:               0.5 elap:               0.0
 (Enter /public3/home/scg9909/software-scg9909/g16/l9999.exe)

 ----------------------------------------------------------------------

 Electric dipole moment (input orientation):
 (Debye = 10**-18 statcoulomb cm , SI units = C m)
                  (au)            (Debye)         (10**-30 SI)
   Tot        0.151750D+01      0.385709D+01      0.128659D+02
   x          0.463876D+00      0.117906D+01      0.393291D+01
   y         -0.142877D+01     -0.363156D+01     -0.121136D+02
   z          0.215035D+00      0.546565D+00      0.182315D+01

 Dipole polarizability, Alpha (input orientation).
 (esu units = cm**3 , SI units = C**2 m**2 J**-1)
 Alpha(0;0):
               (au)            (10**-24 esu)      (10**-40 SI)
   iso        0.763154D+02      0.113088D+02      0.125827D+02
   aniso      0.417841D+02      0.619177D+01      0.688927D+01
   xx         0.942889D+02      0.139722D+02      0.155461D+02
   yx        -0.900753D+01     -0.133478D+01     -0.148514D+01
   yy         0.818632D+02      0.121309D+02      0.134974D+02
   zx         0.340280D+01      0.504242D+00      0.561045D+00
   zy        -0.597618D+01     -0.885579D+00     -0.985340D+00
   zz         0.527940D+02      0.782326D+01      0.870455D+01

 ----------------------------------------------------------------------

 Dipole orientation:
     8         -0.90270546         -0.25058216         -5.38182208
     6         -1.10138146         -0.57535201         -3.11247371
     6         -3.52176286         -0.95984813         -1.55705179
     6         -2.76506273         -0.09982734          1.12500409
     6          0.05109605         -0.80885557          1.26538662
     6          1.97308299          0.88605299          2.68341964
     6          4.03650703          1.26619051          0.71692119
     6          3.27132024          0.43727767         -1.54769622
     7          0.85712094         -0.64819893         -1.39729615
     1         -5.07733065          0.10663090         -2.39453714
     1         -4.04303817         -2.96789473         -1.59339466
     1         -3.88670995         -0.97390982          2.62415220
     1         -2.96757404          1.95613533          1.28615494
     1          0.26138585         -2.77647478          1.89606054
     1          1.14173837          2.70829981          3.24648953
     1          2.65051152         -0.02547623          4.41256111
     1          5.82221858          2.19072039          1.09377652
     1          4.20045788          0.53510671         -3.36589029

 Electric dipole moment (dipole orientation):
 (Debye = 10**-18 statcoulomb cm , SI units = C m)
                  (au)            (Debye)         (10**-30 SI)
   Tot        0.151750D+01      0.385709D+01      0.128659D+02
   x          0.000000D+00      0.000000D+00      0.000000D+00
   y          0.000000D+00      0.000000D+00      0.000000D+00
   z          0.151750D+01      0.385709D+01      0.128659D+02

 Dipole polarizability, Alpha (dipole orientation).
 (esu units = cm**3 , SI units = C**2 m**2 J**-1)
 Alpha(0;0):
               (au)            (10**-24 esu)      (10**-40 SI)
   iso        0.763154D+02      0.113088D+02      0.125827D+02
   aniso      0.417841D+02      0.619177D+01      0.688927D+01
   xx         0.844631D+02      0.125161D+02      0.139261D+02
   yx         0.104906D+02      0.155454D+01      0.172966D+01
   yy         0.549680D+02      0.814542D+01      0.906300D+01
   zx         0.100305D+02      0.148637D+01      0.165381D+01
   zy         0.481089D+01      0.712901D+00      0.793209D+00
   zz         0.895150D+02      0.132648D+02      0.147590D+02

 ----------------------------------------------------------------------
 Unable to Open any file for archive entry.
 1\1\GINC-G0606\Freq\RB3LYP\6-31G(d)\C7H9N1O1\SCG9909\09-Apr-2024\0\\#P
  Geom=AllCheck Guess=TCheck SCRF=Check GenChk RB3LYP/6-31G(d) Freq\\$$
 $$Singlemol####0????\\0,1\O,-1.342594187,2.5313512996,-0.3823901622\C,
 -1.1153549679,1.3357583737,-0.3418932849\C,-2.0910211331,0.1924282253,
 -0.0253023748\C,-1.1747855384,-0.9411855563,0.4819036936\C,0.121615580
 6,-0.7193299413,-0.3163790351\C,1.5109284553,-0.9689483357,0.323514428
 \C,2.2460831901,0.3310610843,0.0316686974\C,1.3973995325,1.259240026,-
 0.4273631907\N,0.1039476789,0.7338423272,-0.5663834883\H,-2.8400240255
 ,0.5283422802,0.6948864805\H,-2.6180434394,-0.0965491816,-0.9441855589
 \H,-1.5938541312,-1.941143828,0.3402601171\H,-0.9728456924,-0.80527666
 4,1.5511001963\H,0.0633269108,-1.2382656716,-1.2834417246\H,1.44117672
 71,-1.1448240982,1.4081249977\H,1.9981790198,-1.8479307671,-0.11056145
 17\H,3.297993374,0.490881578,0.2317018758\H,1.5677726457,2.3006488496,
 -0.6652602149\\Version=ES64L-G16RevC.01\State=1-A\HF=-402.1614458\RMSD
 =1.602e-09\RMSF=9.926e-06\ZeroPoint=0.152041\Thermal=0.159239\ETot=-40
 2.0022068\HTot=-402.0012626\GTot=-402.0411909\Dipole=0.4638761,-1.4287
 664,0.2150354\DipoleDeriv=-0.6763743,0.1367752,0.0132145,0.5680344,-1.
 3527608,0.0930119,0.0199598,0.0455523,-0.3733385,1.5824122,-0.5476853,
 -0.0965252,-0.7240713,1.5867493,-0.1360183,-0.1843222,0.0047733,0.2551
 644,-0.0817196,-0.1699318,0.0240885,-0.1606829,-0.1173518,0.0632969,0.
 0030487,0.0822762,0.1299265,0.0030248,0.0141822,0.0395872,0.094293,0.1
 57111,0.0202227,-0.0167404,-0.0091706,0.1094137,0.1658229,0.0383709,-0
 .0090555,0.0266692,0.4144959,0.0803757,-0.0361276,0.0890443,0.2673756,
 -0.0281916,-0.0207365,-0.0588476,-0.0888981,0.1272663,0.0161162,-0.085
 6484,0.03779,0.1966778,-0.2425838,0.1184112,0.0349348,0.1615679,-0.020
 9968,-0.0256781,0.036087,-0.1121785,-0.205518,0.8679088,-0.0901376,0.2
 015386,0.2278263,0.0424523,-0.0350088,0.0290416,0.0020755,0.0203484,-1
 .6110811,0.5792272,-0.1112549,-0.0174353,-0.636213,-0.0037217,0.300916
 1,-0.0649745,-0.2547908,-0.0326127,0.0420387,0.0471786,0.0612471,0.028
 2373,-0.0243373,0.0855064,-0.0164097,0.0062344,-0.0128161,0.0101855,-0
 .053664,-0.0637105,0.0288843,-0.0299851,-0.0780242,-0.015423,-0.063621
 9,0.0061554,-0.0552912,-0.0008388,-0.0861327,-0.1379724,0.0107887,-0.0
 033796,-0.0206511,0.0511303,0.009899,0.0116203,-0.0602618,0.0107923,0.
 0241167,-0.027574,-0.0189344,0.004953,-0.1274731,-0.0106586,-0.0134244
 ,-0.009973,-0.019092,-0.0672502,-0.0699339,-0.0030282,-0.0986898,-0.14
 08982,0.0480577,-0.0483571,0.0479883,0.0360728,-0.0158803,0.0454168,-0
 .0333808,0.0794273,-0.1555929,0.0169573,0.0408091,0.0275523,0.0934081,
 -0.1123253,-0.0261242,0.0428312,-0.0691577,0.031196,-0.0737662,-0.0414
 612,-0.0272786,-0.0551134,0.0441845,0.0186171,-0.0233857,0.0194191,0.1
 243783,0.0695658,-0.0045955,-0.0083834,-0.0647749,0.0072529,0.0305353,
 -0.0344191,0.0413438,0.129388\Polar=94.2888954,-9.0075318,81.8632326,3
 .4027968,-5.9761843,52.7939677\Quadrupole=2.5498771,-3.2791227,0.72924
 56,4.0346523,-0.0761468,0.4302007\PG=C01 [X(C7H9N1O1)]\NImag=0\\0.1112
 7234,-0.14606034,0.79982497,-0.00759032,-0.02745388,0.03556847,-0.1203
 7154,0.09070118,0.00073195,0.53585459,0.10224910,-0.70742905,0.0283228
 3,-0.11232383,1.00844229,0.00355940,0.03160768,-0.07434264,-0.04501991
 ,-0.04339074,0.22597065,0.01863283,-0.00054686,0.00187568,-0.12140268,
 -0.02563659,0.01146618,0.57247669,-0.01791351,-0.04016795,0.00684182,-
 0.04211180,-0.10655798,0.00861223,-0.03439993,0.42228494,0.00171675,0.
 00616495,0.01719837,0.01572115,0.00530161,-0.09190693,-0.03093356,0.06
 648484,0.55483300,-0.00467842,-0.00624272,-0.00070793,0.01635892,-0.00
 055843,0.00553500,-0.11033955,0.04361752,-0.01728340,0.43187925,-0.004
 46810,-0.00256883,0.00058833,0.00893044,-0.03584910,0.01399813,0.03853
 195,-0.12470595,0.02362547,0.07937856,0.58424809,0.00039464,-0.0007100
 4,0.00096510,-0.00195645,0.00687383,-0.00202777,-0.01985767,0.02135989
 ,-0.09440490,0.02644757,0.01801002,0.57154423,-0.00673344,0.00272604,0
 .00349659,0.00713256,0.02531020,-0.00824344,-0.03357202,0.01087573,0.0
 1128858,-0.13927765,-0.00592675,0.04385920,0.51611707,-0.00499668,0.00
 929788,0.00216009,0.02835581,-0.03245630,-0.00343223,0.01594192,-0.001
 35114,-0.01293942,-0.01782269,-0.07399137,0.00787140,0.00954520,0.4750
 1726,0.00456971,-0.00178286,0.00568930,-0.00600729,-0.00293788,-0.0033
 3729,-0.00466263,-0.00354817,0.00693074,0.04361720,0.00174676,-0.11446
 100,-0.00101545,0.07879227,0.54880264,-0.00026418,-0.00029420,-0.00004
 042,-0.00049464,0.00028916,-0.00046842,-0.00221769,-0.00121012,0.00118
 644,-0.01774544,0.00581589,-0.00741138,-0.13872821,0.01693585,-0.03580
 470,0.42932549,0.00150705,-0.00059815,-0.00123100,-0.00157627,-0.00484
 356,0.00336371,-0.00119942,-0.00020410,0.00150128,-0.00310016,0.004206
 15,-0.00658863,0.00718832,-0.07617886,0.00153388,-0.07581040,0.5521002
 9,-0.00055498,0.00068140,0.00038094,0.00236276,-0.00050703,-0.00199775
 ,0.00374103,0.00073034,-0.00196017,0.01025968,-0.00656453,0.01022362,-
 0.03245538,0.00422939,-0.10112449,-0.02197963,0.00890613,0.55521680,-0
 .00075724,0.00596585,-0.00014468,0.01060603,-0.01346376,-0.00072222,-0
 .00234075,0.00035673,0.00071189,-0.00214548,0.00175513,-0.00384247,-0.
 03374809,-0.01562939,0.00013501,-0.10804019,-0.03720224,0.00412039,0.7
 9424551,0.00114739,0.00177794,-0.00056324,-0.00412423,-0.00509453,-0.0
 0020530,0.00041186,0.00090523,-0.00012703,0.00030455,-0.00162894,0.000
 77818,-0.01288840,0.00229303,-0.00363404,-0.04847286,-0.15597010,0.020
 58378,-0.08928285,0.55818205,-0.00017023,0.00078188,0.00032373,0.00203
 598,-0.00117812,-0.00000238,-0.00052652,-0.00010008,0.00061229,-0.0001
 1255,0.00081078,-0.00179526,-0.00551037,-0.00839412,0.00265029,0.00758
 083,0.02129998,-0.07419565,0.17760054,-0.15780355,0.20914958,0.0080751
 8,-0.00837451,0.00039058,-0.04908992,-0.00159602,-0.00424055,-0.000094
 09,0.00322041,0.00063823,-0.00022531,0.00211031,-0.00051101,-0.0001627
 9,-0.02672609,0.00742015,0.01204039,-0.00205119,0.00250557,-0.25997701
 ,0.18919515,-0.10631964,0.60473784,-0.00100102,-0.00707055,-0.00039555
 ,0.00318678,0.02695233,0.00340749,0.00398108,-0.00253677,-0.00082380,0
 .00009995,-0.00406688,0.00029112,-0.02886475,-0.02881737,0.00281852,0.
 00829154,-0.04002315,0.01669604,0.17848435,-0.31467357,0.11393099,-0.0
 6668065,0.84307904,-0.00108288,0.00452577,-0.00247066,0.00774112,-0.00
 167682,-0.00562186,0.00346321,0.00156342,0.00376059,0.00096753,0.00239
 636,-0.00007120,0.00353411,0.00348159,0.00038622,-0.00052459,0.0172036
 2,0.00258735,-0.09715397,0.11174062,-0.10817957,0.11557730,-0.20416275
 ,0.20576314,-0.01030005,0.05661932,0.00292107,-0.24710450,0.02278545,0
 .04506864,-0.04776507,-0.00491907,0.01388530,-0.01380069,-0.02807670,0
 .00743133,-0.09712803,-0.00334230,-0.00176926,-0.01324548,0.02521504,-
 0.00545423,-0.08679662,0.00623655,-0.01844129,-0.23263286,-0.04509331,
 -0.03900222,0.75884922,0.06539859,-0.04909547,-0.01137297,0.05790883,-
 0.14568913,-0.00910400,-0.01816532,0.00665338,0.00940875,-0.01723546,-
 0.02235004,0.00704711,0.00045066,-0.16706952,0.01536212,0.01712620,-0.
 02058146,0.00733886,0.01349345,0.01458665,0.00459145,-0.06125170,-0.14
 334113,-0.00689685,-0.02749092,0.57264945,0.00128417,-0.01657947,0.017
 42072,0.01993442,0.01149552,-0.05219151,0.00744286,0.00321271,0.013084
 38,0.00750985,0.02199523,-0.00171117,0.00304798,0.00337581,-0.07318487
 ,-0.00447529,0.01287621,-0.00576617,-0.02246362,0.00448070,0.00989169,
 -0.01459757,0.00100994,-0.04205668,-0.00480326,-0.02266974,0.11139059,
 0.00238958,0.00003749,-0.00245804,-0.01487462,0.00847953,0.01380973,-0
 .17256548,0.05699044,0.12538572,-0.00976622,0.00226394,0.00950811,-0.0
 0179128,0.00168695,-0.00108719,-0.00017154,-0.00023435,0.00075230,-0.0
 0060463,0.00002938,-0.00022244,-0.00000826,0.00061612,0.00015389,-0.00
 311467,-0.00222761,-0.00000918,0.18823404,0.00169574,0.00086627,-0.002
 39466,-0.01565873,0.01063873,0.01962565,0.05919653,-0.07478741,-0.0558
 9935,0.01545444,-0.00514995,-0.01687768,0.00117252,-0.00460004,0.00305
 614,0.00028327,0.00068449,-0.00077802,-0.00016770,-0.00051004,0.000162
 10,-0.00031481,0.00123999,-0.00043856,-0.00496128,-0.00323192,-0.00006
 327,-0.06259299,0.07594814,-0.00096660,0.00079603,0.00085058,0.0017763
 0,-0.00485480,-0.00440032,0.12653215,-0.05454371,-0.17224198,-0.010562
 87,0.00311038,0.00985030,-0.00186587,0.00274213,-0.00055723,-0.0004178
 3,-0.00010631,0.00048810,0.00021638,0.00017486,-0.00006466,-0.00047227
 ,-0.00052130,0.00041120,0.00142432,0.00114620,-0.00014084,-0.13455033,
 0.06016297,0.18269722,0.00036860,0.00031434,0.00178098,-0.01040683,-0.
 00544733,-0.01832268,-0.10630470,-0.03296822,-0.10487009,-0.00732244,-
 0.00476815,-0.01451071,0.00027900,-0.00114463,-0.00113855,-0.00030017,
 0.00015178,0.00045118,-0.00012585,-0.00007882,0.00007266,-0.00028463,0
 .00029064,0.00091834,-0.00167771,-0.00078618,0.00256987,0.01256135,0.0
 0650096,0.01888891,0.11348345,0.00002502,-0.00054427,0.00433017,-0.010
 59546,-0.00736644,-0.02456557,-0.03446627,-0.06493781,-0.06406575,0.01
 235070,0.00690566,0.02420027,-0.00041804,0.00016956,0.00003211,0.00020
 638,-0.00005961,-0.00023479,-0.00021263,-0.00028105,0.00005914,-0.0000
 1801,0.00039671,0.00069531,-0.00084287,-0.00081245,0.00222382,-0.00496
 037,-0.00251577,-0.00766495,0.03578184,0.07057573,-0.00054282,0.000089
 33,-0.00076504,0.00335060,0.00128831,0.00921363,-0.10050806,-0.0593487
 2,-0.22816877,-0.00431177,-0.00162418,-0.00987062,0.00008591,0.0007048
 8,0.00020515,-0.00003050,0.00003436,0.00009606,0.00017787,0.00003313,0
 .00005603,-0.00035646,-0.00014616,-0.00027377,0.00113977,-0.00080786,-
 0.00085369,-0.01111448,-0.00637410,-0.01822936,0.11384794,0.06407426,0
 .24713931,0.00204512,0.00126074,-0.00021682,-0.00675827,0.00249055,-0.
 00052578,0.01035383,0.01995557,0.00221295,-0.08890201,-0.09441841,-0.0
 1391632,-0.00698295,-0.02466613,-0.00703660,-0.00009869,0.00019731,0.0
 0065916,-0.00017454,-0.00006962,-0.00006088,0.00067706,-0.00103415,0.0
 0074212,-0.00316832,-0.00150179,0.00289174,-0.00027092,0.00029235,0.00
 019715,0.00108833,-0.00121706,0.00051423,0.09383058,-0.00128041,-0.001
 61297,0.00036143,0.00457855,-0.00138987,0.00024404,-0.00919869,-0.0169
 4068,-0.00251963,-0.09531741,-0.27196224,-0.03472998,0.00052812,-0.001
 55195,-0.00075220,-0.00015437,-0.00024415,0.00003630,-0.00044590,-0.00
 005761,-0.00005805,0.00067382,0.00042715,0.00010295,-0.00120038,0.0007
 6701,0.00067040,0.00030409,-0.00069627,0.00016331,-0.00024117,0.001597
 44,0.00009480,0.10312580,0.29333532,0.00039104,0.00107253,-0.00014618,
 -0.00088427,0.00201412,-0.00035337,0.00489039,0.00945867,0.00052349,-0
 .01612165,-0.03811311,-0.05680271,0.00511067,0.01628954,0.00153521,-0.
 00011736,0.00042821,-0.00046431,0.00027922,-0.00002283,-0.00000727,-0.
 00060168,0.00079960,-0.00058464,0.00401053,0.00141961,-0.00058480,-0.0
 0012421,-0.00001649,-0.00000385,0.00054291,-0.00006910,0.00079286,0.01
 552270,0.03682617,0.05784934,0.00048198,0.00021828,0.00016410,-0.00162
 072,-0.00056150,-0.00008464,-0.00570699,-0.00159221,-0.02121592,-0.055
 84799,-0.01047453,-0.04813046,0.00247232,0.00496931,0.03032219,0.00191
 459,0.00024786,0.00181443,0.00019615,-0.00007484,-0.00008629,0.0002302
 8,-0.00033096,-0.00021278,0.00017866,0.00116974,-0.00094376,0.00059615
 ,-0.00092702,0.00024084,-0.00132493,0.00431277,-0.00167872,-0.00214511
 ,-0.00113466,-0.01265429,0.06481445,-0.00024509,-0.00031499,-0.0003322
 1,0.00127808,0.00084545,0.00052647,0.00561939,0.00262308,0.02404720,-0
 .01012834,-0.05776193,-0.03407678,0.00137866,-0.00037001,0.00248048,-0
 .00010889,0.00041908,-0.00034182,0.00010252,-0.00010659,0.00015566,-0.
 00030317,-0.00012779,-0.00007180,-0.00022840,0.00081643,-0.00022956,-0
 .00041200,0.00160775,-0.00042663,0.00205085,-0.00330824,0.00209639,-0.
 00490648,-0.00252564,-0.03002107,0.00542615,0.05741995,0.00010274,0.00
 050763,0.00003119,-0.00060175,-0.00032860,-0.00012366,-0.00248576,-0.0
 0104846,-0.00832115,-0.04700470,-0.03290929,-0.29514967,-0.00119164,-0
 .00460075,-0.01857216,-0.00189125,0.00038860,0.00082916,0.00016908,-0.
 00005946,0.00034026,-0.00049787,0.00008668,-0.00049103,0.00067729,0.00
 031892,0.00140532,-0.00001831,0.00011592,0.00120402,-0.00055231,0.0016
 1187,0.00064763,-0.00068819,-0.00103462,-0.00298883,0.05038529,0.03562
 224,0.32055709,0.00010751,-0.00009535,-0.00040591,-0.00096895,0.000943
 27,0.00072190,0.00122767,-0.00025954,0.00042395,0.00115664,0.01055647,
 0.02569086,-0.05439290,-0.00665517,-0.01142547,-0.00350614,-0.00948665
 ,-0.02685080,-0.00036905,0.00105086,0.00028542,-0.00071023,-0.00033729
 ,0.00068116,0.00425985,0.00053834,-0.00022482,-0.00026046,-0.00006072,
 -0.00038741,-0.00023535,0.00002207,-0.00055538,0.00143779,-0.00009322,
 -0.00059897,-0.00416934,0.00030936,0.00276832,0.05945267,0.00253758,-0
 .00199812,0.00130080,-0.00647873,-0.00115981,-0.00185920,0.00001834,0.
 00003540,-0.00005142,-0.00003400,0.00416533,0.00679832,-0.00733205,-0.
 09361504,-0.09894331,0.00177098,0.00451774,0.00482552,-0.00054505,0.00
 066364,0.00098254,0.00538056,-0.00095759,-0.00027078,-0.00009341,-0.03
 462926,-0.02509116,0.00008369,0.00022197,-0.00001898,0.00036748,0.0000
 1352,-0.00003216,0.00055688,0.00073524,0.00003821,-0.00150711,0.000711
 61,0.00155707,0.00466077,0.11913317,-0.00018062,0.00003886,-0.00038583
 ,-0.00061276,0.00026320,0.00024964,0.00039304,0.00037447,0.00011927,-0
 .00013603,-0.00662782,-0.01679309,-0.01224282,-0.10151276,-0.25014181,
 -0.00172037,-0.00487922,-0.01231696,-0.00027522,-0.00008680,-0.0007689
 3,-0.00092969,0.00053880,-0.00014653,0.00202710,0.00220125,0.01539748,
 0.00014661,-0.00016186,0.00018939,0.00052904,-0.00031811,-0.00001795,-
 0.00018604,0.00051392,0.00075249,0.00325606,0.00035435,-0.00082183,0.0
 1244458,0.10885564,0.26409833,-0.00018862,0.00039654,0.00044898,0.0003
 2902,0.00027844,-0.00123306,0.00045940,0.00013351,0.00017245,0.0020501
 0,-0.00091347,-0.00136890,0.00253263,0.00078307,-0.02788112,-0.0517884
 2,-0.00064988,0.01867914,0.00193644,-0.00294965,0.01636042,-0.00285513
 ,-0.00168285,0.00032229,-0.00027222,0.00240044,0.00051837,0.00001502,-
 0.00007530,0.00002857,0.00018003,-0.00005300,0.00005204,-0.00004818,-0
 .00006511,0.00002404,-0.00007892,0.00022508,0.00107610,-0.00453224,0.0
 0112655,-0.00282822,0.05236205,0.00042555,-0.00056002,-0.00011595,-0.0
 0129281,0.00066537,0.00031936,-0.00011516,-0.00004329,-0.00004962,-0.0
 0009185,0.00064424,0.00042291,-0.00131897,-0.00083058,0.00286495,0.000
 91683,-0.05136783,0.03661373,-0.00145800,-0.00953599,0.02934550,-0.004
 82705,-0.00185612,0.00066636,0.00227211,-0.00007476,-0.00021959,0.0000
 3306,0.00005988,-0.00002778,0.00001461,0.00008238,-0.00002090,0.000079
 72,0.00002165,-0.00020423,0.00020238,0.00004509,-0.00022703,-0.0004139
 5,0.00084328,0.00019097,0.00309596,0.05744560,-0.00052831,0.00071699,0
 .00012815,0.00199912,-0.00079212,-0.00062968,0.00001701,-0.00004026,0.
 00034274,0.00190100,-0.00017029,0.00076837,-0.00019486,-0.00163489,-0.
 01205571,0.01459280,0.03182755,-0.28927402,0.00184008,0.00700472,-0.00
 161958,0.00268715,-0.00056030,0.00098120,-0.00250585,0.00095937,-0.000
 28034,-0.00003870,-0.00000267,0.00001530,0.00004057,-0.00017142,0.0000
 2272,-0.00005388,0.00003989,0.00016577,-0.00102197,0.00023103,0.001097
 79,-0.00233650,0.00106214,-0.00029251,-0.01796609,-0.04021563,0.315288
 66,-0.00025754,0.00010751,0.00007997,-0.00004117,0.00126581,-0.0003168
 1,-0.00055142,-0.00006752,0.00029792,-0.00137942,0.00084204,-0.0013304
 5,-0.01094588,0.02253349,0.01188305,-0.10002176,0.09257263,0.04723758,
 0.01163276,-0.01534055,-0.00848612,-0.00442108,-0.00309152,0.00008176,
 -0.00242001,0.00032640,-0.00186234,-0.00014806,0.00015492,-0.00007801,
 -0.00000788,0.00007361,-0.00001703,-0.00041341,-0.00006151,0.00005215,
 0.00007585,-0.00007063,-0.00033392,0.00164126,-0.00011275,0.00020683,-
 0.00052943,0.00188564,0.00135270,0.10747228,0.00033192,-0.00033951,-0.
 00003912,-0.00076110,0.00051575,0.00004681,0.00013394,0.00010541,-0.00
 006055,-0.00010237,-0.00027925,0.00042501,-0.00056669,-0.00113618,-0.0
 0084169,0.09609529,-0.21421445,-0.08711509,0.01211406,-0.02212961,-0.0
 0792379,-0.00425299,-0.00305685,-0.00038968,0.00132442,-0.00026670,-0.
 00115175,0.00000846,-0.00000730,-0.00000774,0.00002696,0.00006473,-0.0
 0000807,0.00001974,0.00008380,-0.00005796,-0.00000750,0.00000869,-0.00
 003433,-0.00008111,0.00117770,0.00072590,-0.00197832,0.00485251,0.0011
 0670,-0.10214358,0.23399730,-0.00037151,0.00014543,0.00006024,0.000374
 12,0.00088692,-0.00017462,-0.00010515,0.00006415,0.00023742,-0.0000910
 0,0.00028522,-0.00064975,-0.00676664,0.01148077,0.00350352,0.05013492,
 -0.08906393,-0.09333219,-0.00407679,0.00695379,0.00354070,-0.00042718,
 0.00062948,0.00019293,-0.00299563,0.00204770,-0.00088172,-0.00005423,0
 .00004036,-0.00003111,0.00001650,-0.00006650,0.00003556,0.00005142,0.0
 0002282,0.00019966,-0.00016777,-0.00000727,0.00033641,-0.00022610,0.00
 079695,0.00141989,0.01506727,-0.02696294,-0.01446298,-0.05029166,0.093
 16199,0.10035723,-0.00016706,0.00057688,0.00007620,0.00059410,-0.00109
 735,-0.00104698,-0.00014621,0.00027693,0.00052855,0.00001754,-0.000016
 02,-0.00045620,-0.00036047,-0.00019214,0.00039427,-0.00422177,0.002517
 23,-0.00200236,-0.33538568,-0.04249240,-0.06012575,-0.01107736,-0.0074
 2426,-0.00044712,-0.00109026,0.00117012,-0.00217048,-0.00011377,-0.000
 01661,-0.00000867,0.00006350,0.00001626,-0.00003524,-0.00009374,-0.000
 03846,0.00005311,0.00001523,-0.00000034,0.00000244,-0.00012836,0.00001
 163,-0.00000722,-0.00010730,-0.00023952,0.00022034,0.00007115,-0.00045
 692,-0.00001586,0.35211152,0.00011674,-0.00041607,-0.00002735,-0.00083
 468,0.00157287,0.00104784,-0.00016854,-0.00029071,-0.00007861,-0.00042
 129,0.00068541,-0.00097139,-0.00129862,-0.00595509,0.00270027,-0.02225
 657,0.00223173,-0.00731411,-0.04728428,-0.06011443,0.00085730,0.020755
 28,0.00916175,0.00244104,0.00456425,-0.00193986,0.00352694,-0.00005452
 ,0.00023412,-0.00012415,-0.00004846,0.00002101,-0.00005073,-0.00004697
 ,0.00002279,0.00000456,0.00007581,0.00001907,0.00000290,-0.00054828,0.
 00023431,-0.00036254,0.00016770,0.00028224,0.00059892,0.00095127,0.000
 51903,-0.00054270,0.04678225,0.05362450,0.00022589,-0.00017810,-0.0000
 8858,-0.00093878,-0.00117900,0.00157032,-0.00075185,0.00005616,-0.0005
 5479,0.00010341,0.00015804,0.00023631,0.00127127,0.00035962,0.00134659
 ,0.00479033,-0.00130361,0.00146552,-0.05899500,0.00197531,-0.04226188,
 -0.00843749,-0.00378102,-0.00086241,-0.00174848,0.00583186,0.00775251,
 -0.00008072,-0.00015270,-0.00004338,-0.00022807,-0.00005150,-0.0000304
 5,0.00002279,0.00002617,-0.00000666,0.00004597,-0.00000306,0.00002172,
 -0.00007355,-0.00016096,-0.00026015,-0.00047929,-0.00053809,-0.0002061
 8,-0.00002390,0.00016460,0.00023093,0.06408293,-0.00018484,0.03557030,
 0.00034494,0.00268981,-0.00040198,0.00225862,-0.00340670,0.00006362,-0
 .00014376,0.00001509,0.00013310,-0.00003182,-0.00112260,-0.00003969,-0
 .00470988,0.00042364,-0.00051333,-0.00243613,0.00171334,-0.00328586,0.
 01184823,0.01739847,-0.00387378,-0.06422207,-0.03940969,0.00424072,-0.
 00277124,-0.03132380,0.00635106,-0.00010623,0.00002444,0.00000524,-0.0
 0003377,-0.00000494,-0.00001792,-0.00037657,0.00002089,0.00022567,-0.0
 0008167,0.00001326,0.00008444,-0.00001038,-0.00041137,0.00011573,0.000
 53578,0.00083146,-0.00000458,0.00024376,0.00029576,-0.00005470,0.00001
 894,-0.00045110,0.00121454,0.05967325,0.00053047,0.00094889,0.00002048
 ,0.00081797,-0.00179699,-0.00024237,0.00006179,-0.00008365,0.00008107,
 -0.00015100,-0.00054041,-0.00012357,-0.00056120,0.00114571,0.00105263,
 0.00057603,0.00012597,0.00221390,-0.00658030,-0.00830606,0.00248038,-0
 .04493933,-0.33472919,0.06909021,-0.00276849,-0.00639122,0.00113725,-0
 .00005133,-0.00000262,0.00000047,-0.00001650,-0.00000110,-0.00000258,-
 0.00011805,-0.00000900,0.00015358,-0.00001199,-0.00000101,0.00003071,-
 0.00004985,-0.00009308,-0.00010825,-0.00023970,-0.00067364,0.00004026,
 0.00017474,0.00010494,0.00012776,0.00062272,0.00010731,-0.00103888,0.0
 5270404,0.35019517,-0.00025606,-0.00042413,-0.00041788,-0.00000631,0.0
 0039876,0.00010553,0.00000965,-0.00012930,-0.00008362,-0.00000936,-0.0
 0071549,0.00014920,-0.00220785,0.00102667,0.00238491,-0.00340359,0.003
 80914,0.00914416,0.00242352,0.00877715,0.00233062,0.00817243,0.0701822
 1,-0.05332428,-0.00186514,-0.00682177,0.00130910,0.00000149,-0.0000037
 8,0.00000662,-0.00003651,-0.00001927,0.00000070,-0.00012973,-0.0000077
 1,0.00012382,-0.00003229,-0.00000363,-0.00000226,0.00006873,0.00021077
 ,-0.00028091,-0.00099300,-0.00184200,0.00001029,0.00154829,0.00199877,
 -0.00058213,0.00095802,-0.00152335,-0.00387974,-0.00424228,-0.07491305
 ,0.04300587\\0.00000174,-0.00001086,0.00000026,-0.00001147,0.00001102,
 -0.00000194,0.00002511,-0.00001146,-0.00000292,-0.00001780,0.00001540,
 0.00001651,-0.00000604,0.00000097,-0.00001675,0.00002086,0.00002855,0.
 00001326,0.00000039,-0.00002522,-0.00000296,0.00000572,0.00000565,0.00
 000960,-0.00000879,-0.00001580,-0.00000640,-0.00000716,0.00000492,-0.0
 0000018,-0.00000888,0.00000733,0.00000158,0.00000320,0.00000544,-0.000
 00745,-0.00000102,-0.00000299,0.00000011,0.00000246,0.00000174,-0.0000
 0238,0.00000334,-0.00000659,0.00000160,-0.00000082,-0.00000208,-0.0000
 0248,0.00000218,-0.00000284,-0.00000046,-0.00000302,-0.00000319,0.0000
 0102\\\@
 The archive entry for this job was punched.


 IT MATTERS NOT HOW DEEP YOU PLOW,
 BUT HOW LONG YOU STAY IN THE FURROW.
 Job cpu time:       0 days  0 hours 12 minutes 29.1 seconds.
 Elapsed time:       0 days  0 hours  0 minutes 27.0 seconds.
 File lengths (MBytes):  RWF=     55 Int=      0 D2E=      0 Chk=      3 Scr=      1
 Normal termination of Gaussian 16 at Tue Apr  9 11:55:41 2024.
